 # Version information for this restart file 
 # current date 2022-11-29 22:31:59.795
 # current working dir /scratch/work/courses/CHEM-GA-2671-2022fa/fm1484/comp-lab-class/Week12/Runs/Proton
 # Program compiled at                              Sat Dec 12 18:27:15 EST 2020
 # Program compiled on                                         cs001.nyu.cluster
 # Program compiled for                                                nyu-intel
 # Source code revision number                                       git:8c64c6e
 &GLOBAL
   PRINT_LEVEL  LOW
   PROJECT_NAME PROTON
   RUN_TYPE  MD
   WALLTIME 21600
 &END GLOBAL
 &MOTION
   &GEO_OPT
     OPTIMIZER  BFGS
     MAX_ITER  100
     MAX_DR     3.0000000000000001E-03
     &BFGS
     &END BFGS
   &END GEO_OPT
   &MD
     ENSEMBLE  NVT
     STEPS  2000
     TIMESTEP     4.9999999999999994E-01
     STEP_START_VAL  1939
     TIME_START_VAL     9.6949999999998624E+02
     ECONS_START_VAL    -1.1027452372049922E+03
     TEMPERATURE     3.0000000000000000E+02
     &THERMOSTAT
       TYPE  GLE
       REGION  MASSIVE
       &GLE
         NDIM  5
         A_SCALE     1.0000000000000000E+00
         A_LIST     1.8595758612559999E+02    2.7263853498399998E-01    1.1526100454610001E+01   -3.6414578262600003E+01 \
             2.3173375816020001E+02
         A_LIST    -2.7809524712060002E-01    8.5951591808710006E-05    7.2189048017650004E-01   -1.9844539343859999E-01 \
             4.2409257583420001E-01
         A_LIST    -1.4825808131210000E+01   -7.2189048017650004E-01    1.3590902121280000E+00    5.1498896280349999E+00 \
            -9.9949268450990001E+00
         A_LIST    -1.0372189126880000E+01    1.9844539343859999E-01   -5.1498896280349999E+00    2.6661910891169999E+01 \
             1.1507715495310000E+01
         A_LIST     2.1801346360420001E+02   -4.2409257583420001E-01    9.9949268450990001E+00   -1.1507715495310000E+01 \
             3.0958394565589998E+02
         &THERMOSTAT_ENERGY
               2.3067599839446274E-03
              -5.1096736556395994E-05
              -6.2079606430199361E-03
               4.4683081916134515E-04
              -8.2086875304118352E-03
               3.5905602913923864E-03
               5.2028332275412034E-03
              -4.5245635409046636E-03
              -1.5444796642945012E-03
               3.9057861956377248E-03
               7.8208148273655846E-03
               1.0086598818508348E-03
              -4.9257725319514964E-04
              -4.2999006478652881E-03
               5.8973637620589620E-03
              -1.3799162611306724E-02
               1.3107183371138744E-02
              -2.2445774615820237E-03
               2.5288359527293408E-03
              -1.3744384831157288E-03
              -2.7862975521631716E-03
               1.3687504212821283E-03
              -4.8694526268120500E-03
              -6.0153607132816690E-03
               6.8440600298765837E-03
              -1.0277185602062271E-02
               2.3957728115807913E-03
               2.6611876064544181E-03
               4.6434798873972215E-03
               3.0924400840680703E-03
              -5.2082944812682922E-03
               7.6432309294315577E-03
               6.1643626571803508E-04
               1.3104384072229057E-03
              -4.9862830855394880E-03
               7.5058883361269592E-03
               6.1948108978442913E-03
              -4.0448181012072764E-03
               1.8628795043897734E-03
               1.3448227778683603E-03
               1.1972666946449747E-02
              -1.1786802531757276E-02
              -7.7814153663695786E-03
               9.3863800158541719E-03
               8.8950962204852274E-04
               3.7209226872739866E-03
               1.7848684168716175E-03
               5.3120675755248658E-03
               2.8748366437017017E-03
               4.7020363633059814E-03
              -4.5883207702666655E-03
              -4.0799431268038089E-04
              -4.7730699614903661E-03
              -2.9124870232526672E-03
              -1.4839004738731247E-02
              -1.1031453361055729E-03
               2.1325190989394632E-03
              -2.9054675123591739E-03
               1.0016791247702066E-02
               2.3900054731752236E-03
              -5.8815693026775875E-03
               4.8860394246844057E-03
               1.0901557951832005E-02
              -7.0007384096746460E-03
               4.8584923512135121E-03
               4.2675409537398738E-03
              -1.2640286215740907E-02
               1.4209332667371110E-02
               1.0125453326533274E-02
              -2.2317311591900875E-02
               8.5458286270781404E-04
              -6.9619380117601866E-03
              -8.9211985984294796E-03
               1.3247272650837884E-03
              -3.3705135280288536E-03
              -5.2255492791040570E-03
               3.9315379736588876E-03
               6.9307732333625640E-03
               1.1207768658217614E-02
              -6.0217343050604048E-03
               9.9977076010820936E-03
              -7.4817768885300083E-04
              -2.7226556960138551E-03
               4.2305526752632714E-04
               5.8223128719764512E-04
               7.5278626900327351E-04
               3.9025869194533095E-03
               4.4407009241897999E-03
               7.9047587766462365E-03
               2.0903798853779882E-03
              -1.0782579114239936E-03
              -9.8626827948802044E-03
               1.9987081317924607E-03
               7.0516495082468761E-03
              -1.0405555129920108E-02
              -1.7920082624494028E-03
              -1.0562166700211388E-04
               5.9131827083700893E-04
               5.4180609396336970E-03
               1.7801199560972035E-03
              -6.9361168674528621E-03
              -3.1225454622486283E-03
               5.0201033264106222E-03
              -7.9453856528959258E-03
               2.8650807171007922E-04
               8.1530208127791395E-03
               8.1930299781703044E-04
              -4.3900623360785106E-03
               7.3833588964588269E-03
              -1.9883018908027443E-04
               1.5811246600587882E-03
               3.6225625632751296E-04
               6.4831930410879351E-03
               1.3290905238689140E-02
               1.5994841614576883E-03
              -1.6571137756381258E-03
              -5.7923857386924602E-03
               1.0591373698465257E-03
              -4.5369288852890045E-05
               5.6943576256406597E-03
              -5.4352721250974562E-04
               6.4960847014142089E-03
              -6.1303463357487778E-03
              -3.2699619596083334E-03
              -3.6210033201325960E-03
              -7.7805604104807307E-03
               4.6276052860778384E-03
               1.8177423284178771E-03
              -9.5692286713739241E-04
               7.9935651592787146E-03
              -2.4534456026891458E-03
              -4.1546011198871999E-03
               4.2604305726587173E-03
              -1.3574644076926189E-03
              -1.0391701457120458E-03
              -1.8425604717194500E-03
              -2.7814084277874799E-03
               3.6121805421082962E-03
               1.4149119120788858E-02
              -3.7332055856852749E-03
               2.3075746384558543E-03
               6.3318833361105638E-03
              -2.2499181826103141E-03
               1.0955482861553881E-02
              -1.7995884353126513E-03
              -2.3023032043743893E-03
               5.3811928205873497E-03
               8.8498080000833246E-03
              -3.2220736757630790E-03
              -8.5779848845426391E-03
              -1.6009458514882363E-02
               1.0079851213035139E-02
               1.9475687023796722E-03
              -5.6481450608140092E-04
               1.0425390134764411E-02
               4.5603766612832477E-05
              -4.5394835738412718E-03
              -8.6849504777261111E-04
               1.9170348563630718E-03
              -2.4056995749277233E-03
              -4.1682219355793091E-03
              -1.8615620264269767E-03
              -4.0740410403893451E-03
               3.2937642756311484E-03
               1.0022866455477683E-02
               2.1664779109859429E-02
              -2.0278179954079708E-03
              -9.6906754464082343E-03
               6.2079692260737782E-04
               1.2553526436759754E-02
              -8.7592624840041617E-03
               2.9749472797407505E-04
              -1.3854229097365570E-03
              -7.9908655031666470E-04
              -1.6693483370563715E-03
               8.4667663021962755E-03
              -6.2981438164527231E-03
               5.4615162351115583E-03
              -5.4179451807166820E-04
               1.3091369812670742E-02
              -2.3078143352268403E-03
              -7.5693773391476010E-03
               6.3494221327968815E-03
              -1.0943244423356282E-02
               1.3737244712398110E-02
               1.3190876082684027E-03
              -8.2392723834085208E-03
               4.1272113423169330E-03
              -7.2843624060543411E-03
               1.3286112735873363E-03
               2.3218964010336437E-03
              -3.4260585671629345E-04
               9.2120801129068927E-04
               9.4014883432599530E-03
              -4.1101434667062562E-03
              -3.0438402755894821E-03
              -7.9782246244329506E-03
               4.7726385795500868E-03
              -8.7058330074756658E-04
               1.6151615774986287E-03
              -6.7968965822064681E-03
               9.3338502984467771E-03
               1.5076733664612511E-02
              -6.1056997344033706E-03
              -1.0109957224167018E-02
               1.3665332056068338E-02
              -8.5557388160058291E-03
               2.6973183734087620E-03
               1.4452454624774957E-03
              -3.9342161081559746E-03
               3.9075003275119797E-03
              -1.3846985985795882E-02
               9.8756570869358799E-03
               8.0229974379044874E-03
              -8.4237600875457328E-05
               3.7996161639179693E-04
              -1.3254291769734751E-02
               7.9791039779993668E-03
               3.4042340136860917E-03
              -1.4383975009786146E-02
              -3.0666662460745544E-03
              -3.5335687457798028E-04
               5.7651805628877277E-03
               1.4266057556169722E-02
               1.3039380634501255E-03
               6.5974432795089166E-03
              -2.4866491366232614E-03
              -8.0876598572570660E-04
               8.1351045494291009E-04
              -3.2814188628364905E-03
              -2.4407479133658917E-03
               2.8872617916452124E-03
               1.9987914830863009E-02
              -9.7614816238708307E-03
               6.0032473208491031E-03
               2.1800995360043915E-03
              -1.7955569932384689E-03
              -3.0836958600545198E-03
               5.4689781526774135E-03
               6.1473644379346007E-03
               5.1969199027659544E-03
              -6.9515305866765598E-03
              -8.8710209284244377E-04
              -3.3589836865002927E-03
               9.6491821245642815E-04
               4.6580485242945103E-03
               5.1185134495639693E-03
              -1.7622565506197336E-03
              -6.4188101189491470E-03
              -4.3289171517629128E-03
              -1.6569924205326202E-03
              -3.0619980326297156E-03
              -2.3770355605972370E-03
               2.4444647952691842E-03
               1.6294800551764736E-03
              -5.9432475859335688E-04
               1.5547137072392017E-02
              -5.7110332608666867E-03
               1.6987998150991706E-02
              -3.6036147396029505E-02
               2.0910597671365504E-02
               6.9468547794115463E-03
               3.7310177632948536E-03
              -3.2265762402271399E-03
               3.7347784478996620E-03
              -7.6186913079406109E-03
               1.8408082492566186E-03
              -1.1187822216993855E-02
               1.1247707043726992E-02
               4.9836440115647177E-03
               4.7780786855171163E-04
              -2.1459984604381621E-03
              -2.3183726387772103E-04
               1.0740216213949655E-02
              -3.8599637976161017E-04
               9.8017771561977416E-03
              -2.4545086309143930E-02
               1.0886439181844636E-02
              -3.5623341833064272E-03
               4.5161521199084086E-03
              -5.0282397112890584E-03
              -8.7655264108721365E-04
              -9.7472234896873941E-03
              -4.3668004045770703E-03
               1.3946204710511849E-03
              -4.4509471492253988E-03
               9.9326835800849413E-03
              -6.9545773713851154E-03
              -7.0511389807367446E-03
              -9.7269365056511453E-04
              -3.2841384008392210E-03
               8.5727354956262811E-03
              -3.5476939426458487E-03
              -2.2559129689444148E-03
              -1.9530687063930574E-03
               8.6766941838694184E-03
              -7.7417507360396081E-03
               6.2389294895343669E-03
              -2.1923249659402712E-03
              -4.6983650342062068E-03
              -1.0968368790698487E-03
               1.4123827606331749E-03
               3.1203048052425319E-03
               2.3939163003866854E-03
               7.4144332091687351E-03
              -8.5050591261797582E-03
              -8.3876479415825496E-03
               1.7608688737772910E-03
              -3.6297205658155913E-04
               1.8195134549897907E-02
              -7.8951857401661947E-03
              -4.2514993690867505E-03
               2.2926895344913033E-03
               7.5429622079880481E-03
              -3.8983519227875039E-03
              -1.7304861793376448E-03
               5.7277861101430309E-04
               7.3264517426340275E-03
               2.8385342716501240E-03
              -1.0259186440563828E-02
               1.4162579575143965E-02
              -9.8859473787307577E-03
              -1.8988802025742106E-03
               5.3502148920136997E-03
               1.3736204700315151E-04
               5.6555398486981857E-03
              -1.0577202512575537E-03
               1.1818522424390550E-02
               2.0663683242870840E-03
              -8.0508211710536084E-03
               6.5935694815455696E-03
              -1.1835983381513105E-02
               3.0509498090011784E-03
               2.7125338847056057E-03
               1.0131383946382078E-03
              -1.7651550664761881E-03
               8.2483678045601975E-03
              -9.6526862583577681E-03
              -3.2039566800533444E-03
               9.5541492656450698E-03
              -9.7369600670552947E-03
               2.1814431094286132E-03
               2.7308973290415587E-03
              -7.6408974975628371E-03
               1.7062307920677295E-03
              -2.4745640011161153E-03
              -2.9653499452177840E-04
               1.4998826619996939E-03
               3.1438468747386761E-03
               4.4225642664670606E-03
              -8.1067848154487928E-04
               4.2709646497214766E-03
              -1.0728311744778526E-02
              -4.0816262137375195E-03
              -1.1388470225424510E-02
               1.0669061534398287E-02
              -1.9128914467091737E-04
              -4.6659220377739926E-03
              -1.0037974090334131E-02
               1.6032008806328477E-02
               6.3996003853865021E-04
              -3.3582986991687346E-03
              -6.4273781076053006E-03
              -1.6912217009021912E-03
              -1.0712458924232887E-02
               1.7479384933977486E-02
              -7.4700329823509850E-04
               1.0546668172936244E-03
               4.6949039640409931E-03
              -1.4174782906941680E-03
               3.2782343587895069E-03
              -2.0326696816567987E-03
               9.0883362670088276E-04
               3.7116133491807797E-03
               1.0418865535435839E-03
               9.6629708281955294E-04
               6.0795875643666238E-03
              -1.4206976032700892E-02
               1.4985079637781849E-03
               1.2993083874033879E-02
               3.6197411826409120E-03
               6.5353680463131909E-03
               2.5472187676089778E-02
               2.6819009299069437E-02
              -9.9042359859237861E-03
               3.4607975376154325E-03
               1.4613594637964559E-02
               4.4710142666159920E-03
               1.8697342675552966E-02
               2.2048668805393296E-03
              -9.3345899477269637E-03
               5.7245986421353198E-03
               3.0565264231682690E-03
              -7.4480740871977289E-03
               1.4795213738430965E-02
              -4.7709553069686748E-03
              -4.0610372713447481E-04
              -4.0657811039998756E-03
               7.3687040865661460E-03
              -5.3580074197200379E-03
              -5.1230676035267774E-03
               5.8370283169554421E-03
              -4.4171873544057395E-03
              -7.6814907979285236E-03
               1.8976200757505916E-03
              -9.3413279601624634E-03
               1.3442400872275611E-03
              -3.2358737832223127E-03
               4.7793735867249378E-04
              -7.8643148876589969E-05
              -2.7229021859269298E-03
               1.4868993708794941E-03
               2.2105972965859311E-03
               2.0779427333130649E-03
              -1.1526332009299659E-02
               9.7786062776514977E-03
               2.0494543642923433E-03
              -4.1401037485443871E-03
               1.8014245298830309E-03
              -1.0694795279223917E-03
               2.1165606149105096E-03
              -2.2900725425658857E-03
              -3.4674871698608585E-03
              -3.3603755428205928E-03
               1.3184945785149532E-02
              -5.0218839349821572E-03
              -3.0284134197122049E-03
              -1.0734513801618864E-03
               2.0580728438413382E-03
              -2.6784539260665190E-03
              -1.2434529542650837E-02
              -7.0388992709875323E-03
              -1.0586041677185239E-02
               1.4147417664468118E-02
               8.4770701856376612E-03
               1.0170860813861000E-04
              -1.8904064156596929E-03
              -3.5731080517411220E-03
               3.9743347788697972E-03
               4.0144997617663561E-03
              -6.4225262590483232E-03
               1.9893437543337467E-03
               2.1175471738217096E-03
               2.8907400876855651E-03
              -2.2498320320161130E-05
               5.0943921981789547E-03
               1.2232263031876716E-03
               1.0103650928580730E-02
               2.3427945906995653E-03
              -1.0511059863256076E-02
              -9.9770980169249564E-03
              -1.0212577172928757E-02
               6.3336974366694984E-03
              -1.5299220327649851E-04
               6.9591670414324543E-04
              -8.9749144217978298E-03
              -1.9827770316254881E-03
               1.9237553433159628E-03
              -3.3754184163654471E-03
               2.6901454065059031E-04
               1.1211923874250988E-03
               1.4374642244259770E-02
              -3.6422464286224366E-03
               9.4944573845965208E-03
               6.9676702826004452E-03
               3.4082278713668691E-03
              -9.5012993103929973E-03
               2.4599477367567369E-03
               4.0244608559170756E-03
              -8.4225310148865022E-03
              -3.0541695535728822E-03
              -5.3543325620126290E-03
               3.5319646341606318E-03
               3.1106924142910671E-04
               2.2047975399342432E-03
               1.0167895252535038E-02
               3.5775575470921497E-03
               3.5073862670329543E-03
              -1.0815378203662728E-02
              -6.7795095574888463E-04
              -2.2972365374553556E-03
              -2.7865273275208733E-03
               1.1458681297363976E-02
               1.0139981782191835E-02
               3.2377165790930581E-03
              -3.3235915108705159E-03
               9.7440683640208081E-03
              -7.9683686748944320E-03
              -4.8560311806716055E-03
               1.0525096964032277E-03
               6.2473164601629591E-03
               2.9544067768395828E-03
              -2.9154531910184976E-03
               3.8543656387213902E-03
              -1.1107835636064489E-02
              -1.5961291017056085E-03
               1.4351803512643624E-02
              -8.9632478035243830E-03
               5.3968642823462266E-03
               5.7339747609876264E-03
               3.4859243563750723E-03
              -3.6469806844759149E-03
              -9.3239325840918114E-03
               1.1576979032771672E-02
               1.8646851711400507E-03
              -8.0350370291619837E-03
              -4.0198312441430710E-03
              -2.4713263718402112E-03
               7.4348344735147356E-03
               4.3459924113723684E-04
              -3.9727678714317049E-03
               2.5307944749860404E-03
              -8.1284878910639971E-03
              -9.3013594513419954E-03
               1.5598873316211334E-02
              -1.8657265012521761E-02
              -2.1106656792400738E-03
               1.6551872661684506E-03
              -3.9000393878869575E-04
               1.7435803976602070E-02
              -1.4083988805464612E-02
              -5.4517260517371558E-03
               1.1370083753816866E-02
              -1.4331247652631827E-03
               1.5919312125376381E-03
               7.7776429816992848E-03
              -9.1299572653505811E-03
              -2.4663166046744360E-03
               5.9062116995955191E-04
               6.8481247035141607E-03
               5.6488745106336663E-03
               1.2293244508709866E-02
              -1.5326103063189982E-02
              -1.0308838828132562E-02
               6.0322979758851694E-03
               4.9943864493684062E-03
               3.2727963454057298E-03
              -2.1708868545324465E-02
               3.8091381370781007E-03
               7.7985300106593117E-03
              -9.3507466412744381E-03
               8.2187591027768191E-03
               5.6129869285133022E-03
               5.5148369003807710E-04
               3.8016828296601134E-03
              -8.7442845801170808E-03
               4.6665056664393053E-03
              -9.0446906670130873E-04
               1.0146732569015746E-02
               1.1414931380859597E-02
              -8.6584931370768028E-03
              -1.4822897055647112E-02
              -4.6976065970466959E-03
               2.7396336500219118E-04
              -3.1888084077377849E-03
              -4.6307763601636728E-03
              -1.7109157331078294E-03
               1.4159160104618851E-02
               8.2190612681835654E-03
              -1.8935820001302445E-03
               1.0536369176665571E-02
               7.2455731749985798E-03
               9.0241960312981997E-04
              -6.3793255553170583E-04
              -2.9087642641200827E-04
              -5.8998672711954477E-03
               1.2356145756571388E-03
              -1.0127861446146598E-03
              -3.8646362107023794E-03
              -3.1925746157175400E-03
              -4.9457377407365897E-03
              -5.4956889477358051E-03
              -3.4241621113305664E-03
              -1.4260791644528146E-02
               6.6067382911154070E-03
               1.3123597452282445E-02
               1.1993324817756090E-02
              -1.4557483499083070E-03
              -6.8390320522398046E-03
         &END THERMOSTAT_ENERGY
         &RNG_INIT
Wiener process for Thermostat # 1        1 F T T   1.1748092153563103E+00        2295364324.0        1411728203.0         530606256.0        3503201271.0        2076127404.0        1554351611.0             12345.0             12345.0             12345.0             12345.0             12345.0             12345.0             12345.0             12345.0             12345.0             12345.0             12345.0             12345.0
Wiener process for Thermostat # 2        1 F T T   9.1577642813601062E-02         467685975.0        2915460266.0        2203813866.0        3870349108.0          63336584.0         566535173.0        3692455944.0        1366884236.0        2968912127.0         335948734.0        4161675175.0         475798818.0        3692455944.0        1366884236.0        2968912127.0         335948734.0        4161675175.0         475798818.0
Wiener process for Thermostat # 3        1 F T T  -1.5529056642589342E-01        1879517989.0        4254773936.0        2466174576.0        1854173809.0        2341986406.0        3699660794.0        1015873554.0        1310354410.0        2249465273.0         994084013.0        2912484720.0        3876682925.0        1015873554.0        1310354410.0        2249465273.0         994084013.0        2912484720.0        3876682925.0
Wiener process for Thermostat # 4        1 F T T   1.0570992232045609E-01        1489327898.0        1631204197.0        3012499541.0        3103381956.0        3667487860.0         286136806.0        2338701263.0        1119171942.0        2570676563.0         317077452.0        3194180850.0         618832124.0        2338701263.0        1119171942.0        2570676563.0         317077452.0        3194180850.0         618832124.0
Wiener process for Thermostat # 5        1 F T T  -1.9636122083930632E+00        3545677200.0        1789838352.0        2366002712.0        2991967764.0          75379059.0        2714772519.0        1597262096.0        3906379055.0        3312112953.0        1016013135.0        4099474108.0         275305423.0        1597262096.0        3906379055.0        3312112953.0        1016013135.0        4099474108.0         275305423.0
Wiener process for Thermostat # 6        1 F T T  -2.7501042599320902E-01        3585694717.0        1364231148.0        2402311762.0        2115585965.0         855937527.0        1703553749.0          97147054.0        3131372450.0         829345164.0        3691032523.0        3006063034.0        4259826321.0          97147054.0        3131372450.0         829345164.0        3691032523.0        3006063034.0        4259826321.0
Wiener process for Thermostat # 7        1 F T T   3.1262877661027372E-01        2138141907.0        3986240390.0        1473325548.0        1580209513.0        1741084019.0        3534687747.0         796079799.0        2105258207.0         955365076.0        2923159030.0        4116632677.0        3067683584.0         796079799.0        2105258207.0         955365076.0        2923159030.0        4116632677.0        3067683584.0
Wiener process for Thermostat # 8        1 F T T  -1.5318821417938691E+00        2439987470.0          45948975.0        2415124402.0        4214080353.0        2513608837.0        1516711635.0        3281794178.0        2616230133.0        1457051261.0        2762791137.0        2480527362.0        2282316169.0        3281794178.0        2616230133.0        1457051261.0        2762791137.0        2480527362.0        2282316169.0
Wiener process for Thermostat # 9        1 F T T  -4.2396696520697241E-01        3525935363.0        2562480634.0         956065722.0        3017304371.0        1015863617.0        3303191224.0        3777646647.0        1837464056.0        4204654757.0         664239048.0        4190510072.0        2959195122.0        3777646647.0        1837464056.0        4204654757.0         664239048.0        4190510072.0        2959195122.0
Wiener process for Thermostat # 10       1 F T T   1.3004479617962488E+00        1733880251.0         396787930.0        3309626341.0        1444200933.0        1168399780.0        2577453242.0        4215590817.0        3862461878.0        1087200967.0        1544910132.0         936383720.0        1611370123.0        4215590817.0        3862461878.0        1087200967.0        1544910132.0         936383720.0        1611370123.0
Wiener process for Thermostat # 11       1 F T T  -5.8332332910344509E-01          18239154.0        1576205575.0        1627521810.0        3749062971.0          43239982.0        2686583923.0        1683636369.0         362165168.0         814316280.0         869382050.0         980203903.0        2062101717.0        1683636369.0         362165168.0         814316280.0         869382050.0         980203903.0        2062101717.0
Wiener process for Thermostat # 12       1 F T T  -2.8289802119096052E-02        1569555357.0        1516950295.0         113879895.0         305323342.0        3678854211.0        1327895895.0         272317999.0         166758548.0         310112982.0         201045826.0        1680231254.0         118290799.0         272317999.0         166758548.0         310112982.0         201045826.0        1680231254.0         118290799.0
Wiener process for Thermostat # 13       1 F T T   8.6083796728521200E-01        1282674163.0        3766678813.0         165149217.0        1298127032.0          95074010.0        1974119212.0        2245755202.0        1652682525.0        2865544364.0         721509566.0         209733568.0         592362218.0        2245755202.0        1652682525.0        2865544364.0         721509566.0         209733568.0         592362218.0