 # Version information for this restart file 
 # current date 2022-11-29 21:05:24.818
 # current working dir /scratch/work/courses/CHEM-GA-2671-2022fa/fm1484/comp-lab-class/Week12/Runs/Proton
 # Program compiled at                              Sat Dec 12 18:27:15 EST 2020
 # Program compiled on                                         cs001.nyu.cluster
 # Program compiled for                                                nyu-intel
 # Source code revision number                                       git:8c64c6e
 &GLOBAL
   PRINT_LEVEL  LOW
   PROJECT_NAME PROTON
   RUN_TYPE  MD
   WALLTIME 21600
 &END GLOBAL
 &MOTION
   &GEO_OPT
     OPTIMIZER  BFGS
     MAX_ITER  100
     MAX_DR     3.0000000000000001E-03
     &BFGS
     &END BFGS
   &END GEO_OPT
   &MD
     ENSEMBLE  NVT
     STEPS  2000
     TIMESTEP     4.9999999999999994E-01
     STEP_START_VAL  1500
     TIME_START_VAL     7.5000000000000762E+02
     ECONS_START_VAL    -1.1027452372049922E+03
     TEMPERATURE     3.0000000000000000E+02
     &THERMOSTAT
       TYPE  GLE
       REGION  MASSIVE
       &GLE
         NDIM  5
         A_SCALE     1.0000000000000000E+00
         A_LIST     1.8595758612559999E+02    2.7263853498399998E-01    1.1526100454610001E+01   -3.6414578262600003E+01 \
             2.3173375816020001E+02
         A_LIST    -2.7809524712060002E-01    8.5951591808710006E-05    7.2189048017650004E-01   -1.9844539343859999E-01 \
             4.2409257583420001E-01
         A_LIST    -1.4825808131210000E+01   -7.2189048017650004E-01    1.3590902121280000E+00    5.1498896280349999E+00 \
            -9.9949268450990001E+00
         A_LIST    -1.0372189126880000E+01    1.9844539343859999E-01   -5.1498896280349999E+00    2.6661910891169999E+01 \
             1.1507715495310000E+01
         A_LIST     2.1801346360420001E+02   -4.2409257583420001E-01    9.9949268450990001E+00   -1.1507715495310000E+01 \
             3.0958394565589998E+02
         &THERMOSTAT_ENERGY
               1.8036977287517653E-03
              -3.7157983071949290E-03
              -2.0488279793570456E-03
               3.6196686522738252E-03
              -1.2036058928218929E-02
               4.6012792107198164E-03
               6.8626894978266895E-03
              -5.1519306881276589E-03
              -9.3897696146077298E-04
               5.1174075569734283E-03
               5.9638637242550759E-03
              -2.6509021138232747E-03
               5.4709454678304574E-04
              -6.7892340483624459E-03
               9.3996642748402394E-03
              -7.7886523134042852E-03
               1.3314095186885302E-02
              -1.6456062165807782E-03
               2.1527627256147375E-03
              -2.4842056615362517E-03
               4.9613322622070000E-04
              -2.2214417120387736E-03
              -3.8292692916057636E-03
              -5.3486531645516896E-04
              -2.6353109173434738E-03
              -4.2650087773531530E-03
               1.3418307171658766E-03
               3.0466731329521755E-03
               7.1577196128306880E-03
               2.6049044332168321E-03
              -5.3978121903316516E-03
               5.9219279113999750E-03
               3.5178818398816846E-03
               1.8792524261733586E-03
              -8.0410624367602251E-03
               1.2462266041562966E-02
               3.8978984668653241E-03
              -2.9133234166921554E-03
               2.6329836828655976E-03
               8.9470805540843232E-04
               4.0142165503864874E-03
              -3.0969020279446964E-03
              -6.0235035346200387E-03
               4.3934570734128209E-03
              -3.7008768094151387E-03
              -1.2757437050484664E-03
              -5.2283563828463666E-04
               4.5793216235967670E-03
              -2.1241245474861057E-03
               4.9044644424800377E-03
              -1.2351826996205742E-03
              -5.0759097548246828E-03
              -3.7483436401690466E-03
               8.3611380731257940E-04
              -1.0419524312070766E-02
              -3.0297085155069796E-04
               3.2968386912371390E-03
               1.1905982354879578E-04
               1.0509985324411815E-02
               2.0226166340249047E-03
              -8.2952450541658625E-03
              -5.9901126316709505E-03
               1.4129477086279220E-02
              -5.6606102562809582E-03
               4.7238769072139716E-03
              -1.0382996757582945E-04
              -1.3429616548967802E-02
               1.1076345326415554E-02
               9.0827719279864289E-03
              -1.1140933298576997E-02
               1.2473768689966144E-03
              -5.6390294663114125E-03
              -6.2148158069198784E-03
              -1.2808431656558918E-03
              -2.8570031779752412E-03
              -3.6456517081894873E-03
               2.0032092190304836E-03
               1.7105269522517405E-03
               1.0524651406673876E-02
              -7.7330566854474717E-03
               1.0992631635393898E-02
              -1.9288471329596739E-03
              -1.5190527567081119E-03
               5.9058119825702057E-04
               6.2153016438842705E-05
               6.2767315512534424E-04
              -1.7302451222493678E-04
               1.0424776803816278E-02
               5.8918971775250763E-03
               3.7230808511860905E-03
              -3.4616139456718140E-03
              -9.3020315536274326E-03
               5.0857078418883525E-04
               2.8787431298012383E-04
              -8.8342268222951128E-03
               7.0688228605975253E-04
               2.4881530582007878E-03
              -6.2546405274812829E-04
               6.4658990237940594E-03
               3.0082438532264772E-03
              -6.7178326977561887E-03
              -1.1746672854165733E-03
               3.8282481471813875E-03
              -4.4316010458615527E-03
              -1.9308732042489873E-03
               5.9774969732661340E-03
               2.5563881219327553E-03
              -4.2410231225164258E-03
               5.7217054798352849E-03
               1.9904434805824921E-05
              -1.0202404471116246E-03
              -5.4921410421236595E-03
               6.7269818822638210E-03
               1.2234445568982611E-02
               5.1686403630568289E-03
               3.1170315909827837E-03
              -7.3009907906547000E-03
               3.5521663731607014E-03
               1.3729256088345345E-03
               1.7737003388537289E-03
              -8.7089864165941922E-04
               3.9379906383360114E-03
              -1.9142342085869651E-03
              -4.2530784556675345E-03
              -4.3218580738560441E-03
              -9.2215422191115216E-03
               7.0690016386369412E-03
              -1.4104408312568244E-04
               1.0300761242217965E-03
              -1.8216330661559533E-03
              -3.3326357287650600E-03
              -1.1219679794278240E-03
               1.2726424377081564E-03
              -5.0074929131876025E-03
               7.5370012890362318E-04
              -1.1324303643014707E-03
              -7.1765975046809314E-03
               6.0757045239634797E-03
               1.4842041740178186E-02
              -1.2083448795942519E-03
               1.1916641405690742E-03
              -1.2180690401560044E-03
              -3.0685951177357794E-03
               8.4660284261826903E-03
              -2.7193075600584933E-03
              -4.4224796908726178E-03
               4.1036896991200212E-03
              -1.0249893671699195E-03
              -5.2178323488327738E-03
              -2.1262929539425683E-03
              -1.3469668827074382E-02
               7.2886332874832456E-03
               3.8144825403854258E-03
              -1.0474341679135382E-03
               1.0073442623606143E-02
               2.2410835140472306E-03
              -2.8663273027671509E-03
              -5.7275474761278571E-03
               1.4620950359755707E-03
              -2.5440617426126227E-03
               1.7216035911845327E-03
              -3.1800957166259625E-03
              -4.4675071449415370E-03
               2.5076705642807498E-03
               4.2289932249670479E-03
               2.0663252016520903E-02
              -4.4275229424206098E-04
              -3.1994859194932387E-03
              -5.5878156984438335E-03
               7.3087077594585310E-03
              -2.1381186776876643E-03
              -9.7795710832309746E-04
              -5.4710489990846250E-04
               2.4947448872746497E-03
              -5.1742938567912134E-03
               1.0841464143976505E-02
              -4.8027785899602202E-03
               4.2484821233399828E-03
               1.4591612396206008E-03
               5.0206937387199495E-03
              -4.1651889428338746E-03
              -4.6230606265605743E-03
               4.7842354208934013E-03
              -1.4118634851450191E-02
               1.2993157284364855E-02
              -1.3910742536047331E-03
              -5.2884315655391386E-03
               2.1363814830347798E-03
              -8.9361853595451776E-03
               2.6643719742303288E-03
               1.6115959810697705E-04
              -1.1055315049160351E-03
               2.3474561485116014E-03
               9.8278318550177775E-03
              -1.2329913508113508E-03
              -3.5450498515854161E-03
              -4.3803172740281117E-03
               1.3586813782885661E-03
               1.0390244345759294E-03
               2.9285879610181616E-03
              -5.5624294110021202E-03
               5.2915025791490269E-04
               8.4867317664038336E-03
               2.5504529349043253E-03
              -9.1803715557519597E-03
               9.2878384947982194E-03
              -4.7136837371045933E-03
               6.2379455136023602E-03
               2.7018108674107776E-03
               1.3893300899505908E-04
               2.7986490384022630E-03
              -1.0574449564562778E-02
               7.6846659325456920E-03
               1.7064143833911594E-03
               2.9571471935991192E-03
               6.1686813299805148E-03
              -8.3124932427242719E-03
               4.3488046005510537E-03
              -8.4788167039774967E-04
              -1.0025134947519764E-02
              -3.9483502768677611E-04
              -1.9641522285036806E-03
               7.1985504150830293E-03
               5.0394579890841121E-03
               1.8117589653070037E-03
               5.0277819504722958E-03
               5.1234359330971728E-04
               1.1050588643185546E-03
              -6.4521041254240940E-03
               6.9004314815063559E-03
              -1.3106706165433579E-03
               8.4755419470691814E-03
               1.1246083219244999E-02
              -9.4752601583920279E-03
               2.7511262941969775E-03
              -5.6508688191725413E-03
              -3.8011037570565365E-03
              -1.3956933684495393E-03
               2.1112926841068886E-03
               5.5194781382234600E-03
               4.7991495483527555E-03
              -1.7782123622504804E-03
              -4.4340026949415371E-04
               9.3361538241698398E-04
              -1.5249999453839222E-03
               1.8871685274499401E-03
               3.1187671282040565E-03
              -2.3157521935918404E-03
              -6.9653645295564013E-03
              -2.0170926998085100E-03
              -4.6267186408361749E-04
               1.2802828235092913E-03
              -1.3021231972124387E-03
              -1.8488252087396520E-03
               1.6040608959583581E-03
              -3.0029431685418516E-03
               1.3099838549829115E-02
              -8.4273249191824124E-03
               1.1388742360273233E-02
              -2.1341055320726526E-02
               1.3638154445895950E-02
               5.5998560510144456E-03
               6.8150202238335331E-03
               2.1322711815984037E-03
               1.8557780980056780E-03
              -9.5677189955189722E-03
               2.3533466714678935E-03
              -1.1076649527917896E-02
               4.9470764453587229E-03
               6.7195259350212441E-03
              -1.6461418734941755E-03
              -1.6292055062064549E-03
               6.9561976714406825E-03
               1.4268605640551347E-02
              -6.3081340600010406E-03
               5.0885965094129701E-03
              -2.0881223491052942E-02
               1.0005107868585392E-02
              -2.7297460435498229E-03
               5.0378935781474534E-03
              -5.1750052195124480E-03
               1.9785274849266699E-03
              -6.0628401435155951E-03
              -7.3896788962919905E-03
               5.9094270222074998E-03
              -9.4186156212327336E-03
               8.9403791171727299E-03
              -4.1389921626002217E-03
              -6.5673357725074353E-03
               1.7323761321663537E-04
              -1.3681224123701298E-03
               1.0449864404192447E-02
              -7.2886063479067637E-03
               7.0590871863400299E-04
              -3.2984863019521289E-03
               5.4005976358869777E-04
              -4.3567571431553688E-03
               2.3249549554625239E-03
              -1.5399440243220111E-03
              -5.9270576148953433E-03
              -2.9766763776958118E-03
               6.5157876306377082E-03
               6.0614736369951269E-04
               2.0572018156726395E-03
               6.5772624358382452E-03
              -1.0655924707513484E-02
              -7.1184785177428010E-03
               9.7777336429464689E-04
               1.9882596288788175E-03
               1.6800368496096198E-02
              -6.7010720957789600E-03
              -7.9541368219657703E-03
               1.0884722927794094E-02
               9.5091257003236619E-05
              -4.9489118088197129E-03
              -6.8098537972137972E-04
               2.6323314254195181E-03
               4.4618106563702178E-03
              -1.4207622295335236E-03
              -7.4768532011481549E-03
               1.3030955033849222E-02
              -5.2186239676418212E-03
               2.1314655026231253E-03
               3.9971815453514418E-03
               5.0207603000653747E-04
               5.5717678261547419E-03
               1.6514987319177273E-03
               2.3610325694954880E-03
              -5.5986025001043176E-04
              -1.0240337444692178E-02
              -3.1424122715829997E-04
              -8.1806743451457963E-03
               8.9008600851938121E-03
               2.4843068462141707E-04
               1.1548825807658402E-03
              -4.4237832491405508E-03
               1.0127319467083576E-02
              -9.0675849462957883E-03
              -2.1023193787654704E-03
               1.3500962385323164E-02
              -9.6732709377789355E-03
              -2.0199292526480381E-03
               5.3546894552784358E-03
              -4.8395159641791774E-03
               1.7847211551425156E-03
              -5.2218297732092769E-03
              -1.4055200971099962E-03
               4.9315708110219706E-03
              -2.2721878530362312E-03
               4.6807262740262180E-03
              -7.8561889119033916E-04
               5.1150690277410819E-03
              -1.0110808342227126E-02
              -2.4581362255877955E-03
              -7.1684303786865083E-03
               1.0172613764578091E-02
              -3.6970198945038267E-03
              -8.2867742103586014E-04
              -1.0923201562339970E-03
               5.9142911335793554E-03
              -6.9411582899583739E-04
              -3.0439509306393838E-03
              -1.0145501283263561E-02
              -3.6051267696081630E-03
              -8.0151638387636823E-03
               1.8801223905420467E-02
               1.6694634909424631E-04
               5.5140245074780029E-04
               3.0089479497885114E-03
              -3.0386596928362792E-03
               2.5568396715269894E-03
              -4.4946825218567828E-04
              -2.6377982193467294E-03
               9.0678767120426214E-04
               1.8896111506876479E-03
               1.0922982778462920E-03
               5.1728399697928400E-03
              -7.3325725361941332E-03
               2.2239497153030995E-03
               1.0856715862345878E-02
               3.9009030041521351E-03
               1.0256226681696465E-02
               2.4721333156373777E-02
               2.6754964861153186E-02
              -1.3708286344957899E-02
               2.3188360204213368E-03
               1.6841723631488760E-02
               2.1241603234771786E-03
               2.0688496352525291E-02
               3.8938213921375713E-04
              -7.3608442838326042E-03
               6.7446156810933985E-03
               6.0499494407086052E-04
              -2.4584319541846203E-03
               9.2238232240415430E-03
              -4.0295583240370731E-03
              -5.1667278187629458E-03
               2.5096758479571891E-03
               6.2975177618026651E-03
              -4.7814000840575082E-03
              -5.8887625197707816E-03
               3.9000953494525261E-03
              -3.6638519415307762E-03
              -4.3487765413977499E-03
              -5.4976930834742016E-04
               2.5048868858489498E-03
              -1.4390718528007997E-03
              -4.5065588199447136E-03
              -3.8270324967498980E-04
               1.4146522571034212E-03
              -1.6225800190058130E-03
              -7.3631474465564689E-04
               2.6833534272575361E-03
              -1.7333443529557991E-03
              -4.2565887756993680E-03
               8.3384156319533526E-03
               4.0251087795105025E-03
               3.0423965918805287E-04
              -1.9760073521926610E-03
              -1.1564652567054670E-03
               9.8708502851585023E-04
              -2.7470197982391079E-03
              -5.3219420637560617E-03
              -2.8654189591156539E-03
               1.1917789584983698E-02
              -6.8565242572032571E-03
               1.6462298505510969E-03
              -7.8866524253065780E-04
              -4.6971092581611846E-05
               3.2119542165588298E-04
              -1.0118406276616516E-02
              -4.9912992184681943E-03
              -1.0360062029509429E-02
               4.7098408680365886E-03
               8.0923540094910359E-03
               1.7932445076999279E-03
              -2.8612089161822289E-04
              -5.5144071497777551E-03
               2.2011067027723000E-03
               9.9880276690396830E-04
              -2.7278706911506869E-03
              -1.5301154038413070E-03
               3.0211748568260920E-03
               4.8203565281504162E-03
              -5.4992327203061593E-04
               4.6782101936342782E-03
               1.0211316460512668E-02
               1.0683639772659693E-02
               4.2367487075173991E-03
              -1.4521395273541977E-02
              -3.6188854833131079E-03
              -6.6486046194446577E-03
               3.2404805719851706E-03
              -2.8984841277100372E-03
              -4.5282362269891546E-03
              -8.4480481816176060E-03
               9.7821600411199011E-04
               7.2364550577660482E-04
              -6.1271440556801230E-03
               1.0006686990970954E-02
              -9.1678617928581021E-04
               2.8443573301111255E-03
              -2.6189393071645575E-03
               6.5160436561288474E-03
               1.2073786276329325E-02
              -3.9811362221221661E-05
              -1.0172184343816689E-02
               7.2326852044392884E-04
               3.5485731643349876E-03
              -3.9838102743093686E-03
              -2.4879018768694124E-03
              -1.7148321721793967E-03
               3.4001679972629822E-03
               2.5886881311577435E-03
              -1.3399976290993758E-03
               9.1875136672330791E-03
               3.4691289863028039E-03
               3.2314398162838040E-03
              -4.9494859678739338E-03
               1.3181222699144908E-03
               1.4073822994298201E-03
              -2.8231209466282395E-03
               9.2118559093655530E-03
               1.0609653456342030E-02
               3.0202481326098963E-03
              -1.7454114154843395E-03
               3.0141738158554524E-03
              -8.4532626714436850E-03
              -2.9633344648813701E-03
              -1.1371916483003516E-03
               6.9021598578655552E-03
              -2.6743053053093947E-04
              -8.5221666030953279E-05
               5.5481914854453682E-04
              -9.6383302530103770E-03
              -2.5558143841819991E-03
               4.9325646764019236E-03
               2.1116596673447382E-03
               5.6796709084345528E-03
               4.2431914075054837E-03
               5.2177736992778624E-03
              -3.1218845414644021E-03
              -7.1815679941011068E-03
               1.0562162445702364E-02
              -7.5769044734548237E-04
              -7.3704828110713137E-03
              -2.2943261639466702E-03
              -2.1423015204425867E-03
               7.2209590428010638E-03
               1.9594667388917468E-03
              -1.3247953534776939E-03
               5.0971018927991347E-03
              -8.8596493834622488E-03
              -7.5605892197717827E-03
               1.3672745043089294E-02
              -1.5274353218619537E-02
              -1.0211683811023548E-04
               1.5051865531235606E-03
              -2.1359162901649092E-04
               1.3105047634766781E-02
              -8.0824682546749987E-03
              -6.8905114443689906E-04
               3.7496599317563724E-03
              -4.8060583912582508E-03
              -3.1596263955646856E-03
               2.6477187163840132E-03
              -1.0526866707172046E-02
               5.6712857966487542E-04
              -1.2183771218223164E-04
               8.0509386252072632E-03
               5.3349033674486672E-03
               7.0929798607820100E-03
              -8.0135630936425031E-03
              -5.6882095892796464E-03
               4.7449639535131908E-03
               4.9626829722804501E-03
               3.8450291137168253E-03
              -1.6463178582785905E-02
               2.9979746740288965E-03
               8.8483404983000485E-03
              -3.8150721940062803E-03
               1.0779141610192593E-03
               8.2745365945231693E-03
               1.8353963464954658E-03
               2.6488777985015288E-03
              -7.7477717374466277E-03
               4.2444157692140341E-03
              -6.8107416650382219E-03
               1.2716618943234710E-02
               1.5968860449274615E-02
              -1.1522014392157274E-02
              -8.7312753760486334E-03
              -3.0910708368980951E-03
              -1.2845296002535831E-03
               1.7338720741615352E-03
              -2.7269950199942080E-03
              -1.6876450307236134E-04
               7.7759404296369591E-03
               6.3358360843610226E-03
              -9.4999448931169003E-04
               1.0683120355635293E-02
               7.6818749747159468E-03
               3.9111107527492880E-03
              -5.4081578628477631E-05
              -2.0239951631157221E-03
              -7.4807560009135850E-03
               1.2443964263902853E-03
               1.9047741678155591E-03
               7.3100040892786562E-04
              -5.3325630068874171E-03
               6.2458135259112028E-04
              -6.0697462718841619E-03
              -2.6857568505776206E-03
              -1.7880131802581186E-02
               8.6780946063447530E-03
               3.9205153662130307E-03
               1.3065265184167559E-02
               2.2911751087354264E-03
              -8.6200750097866295E-03
         &END THERMOSTAT_ENERGY
         &RNG_INIT
Wiener process for Thermostat # 1        1 F T T   1.0570193072987602E-01        2554248455.0        3733268398.0        2096963647.0         915983833.0        1292997779.0         989563289.0             12345.0             12345.0             12345.0             12345.0             12345.0             12345.0             12345.0             12345.0             12345.0             12345.0             12345.0             12345.0
Wiener process for Thermostat # 2        1 F T T  -5.0729818522276993E-01         187792199.0        1332764939.0        1272087322.0         282682701.0         988697858.0        4086000388.0        3692455944.0        1366884236.0        2968912127.0         335948734.0        4161675175.0         475798818.0        3692455944.0        1366884236.0        2968912127.0         335948734.0        4161675175.0         475798818.0
Wiener process for Thermostat # 3        1 F T T   8.9774137220556466E-02        3755061031.0        1753083868.0        1351179932.0         343881147.0        3312142877.0        1244557929.0        1015873554.0        1310354410.0        2249465273.0         994084013.0        2912484720.0        3876682925.0        1015873554.0        1310354410.0        2249465273.0         994084013.0        2912484720.0        3876682925.0
Wiener process for Thermostat # 4        1 F T T   2.1447125495896904E-01        2430503636.0         902227617.0        3039217662.0         205693714.0        2375800914.0        4220709598.0        2338701263.0        1119171942.0        2570676563.0         317077452.0        3194180850.0         618832124.0        2338701263.0        1119171942.0        2570676563.0         317077452.0        3194180850.0         618832124.0
Wiener process for Thermostat # 5        1 F T T  -7.4974817695318574E-01        3949927612.0        4293465109.0         224208328.0         677588237.0        2173092809.0        2514687022.0        1597262096.0        3906379055.0        3312112953.0        1016013135.0        4099474108.0         275305423.0        1597262096.0        3906379055.0        3312112953.0        1016013135.0        4099474108.0         275305423.0
Wiener process for Thermostat # 6        1 F T T  -2.3195632299180402E+00        4147399821.0         968438491.0         174961265.0         382156541.0        3672303660.0        2385050302.0          97147054.0        3131372450.0         829345164.0        3691032523.0        3006063034.0        4259826321.0          97147054.0        3131372450.0         829345164.0        3691032523.0        3006063034.0        4259826321.0
Wiener process for Thermostat # 7        1 F T T  -8.3038096976097500E-03        3725962017.0        3124905816.0        1692649901.0        3685368087.0         990134651.0        3321809881.0         796079799.0        2105258207.0         955365076.0        2923159030.0        4116632677.0        3067683584.0         796079799.0        2105258207.0         955365076.0        2923159030.0        4116632677.0        3067683584.0
Wiener process for Thermostat # 8        1 F T T   7.2955713326517235E-01        1426374835.0        1022225665.0        3431852557.0        2945126969.0        1347790872.0        2047858768.0        3281794178.0        2616230133.0        1457051261.0        2762791137.0        2480527362.0        2282316169.0        3281794178.0        2616230133.0        1457051261.0        2762791137.0        2480527362.0        2282316169.0
Wiener process for Thermostat # 9        1 F T T  -8.3876742673612970E-01        3633457436.0         863053678.0         665967915.0         928783000.0        4027924725.0        3556250224.0        3777646647.0        1837464056.0        4204654757.0         664239048.0        4190510072.0        2959195122.0        3777646647.0        1837464056.0        4204654757.0         664239048.0        4190510072.0        2959195122.0
Wiener process for Thermostat # 10       1 F T T  -6.7138423863751628E-01        3282585865.0         909372753.0         488063086.0        2442536289.0         174422437.0         477575080.0        4215590817.0        3862461878.0        1087200967.0        1544910132.0         936383720.0        1611370123.0        4215590817.0        3862461878.0        1087200967.0        1544910132.0         936383720.0        1611370123.0
Wiener process for Thermostat # 11       1 F T T  -7.2169956836733329E-02        3039538231.0          25912629.0        1608189467.0        1823124278.0        2331127605.0        2449500504.0        1683636369.0         362165168.0         814316280.0         869382050.0         980203903.0        2062101717.0        1683636369.0         362165168.0         814316280.0         869382050.0         980203903.0        2062101717.0
Wiener process for Thermostat # 12       1 F T T  -6.7722400494670465E-01        2762226669.0        4262778377.0        2250707948.0        3120407528.0        3704866228.0        1185520965.0         272317999.0         166758548.0         310112982.0         201045826.0        1680231254.0         118290799.0         272317999.0         166758548.0         310112982.0         201045826.0        1680231254.0         118290799.0
Wiener process for Thermostat # 13       1 F T T  -7.3817531449270457E-01        3689403510.0         367299738.0        3636386471.0        1925893934.0        3355800516.0        3520562622.0        2245755202.0        1652682525.0        2865544364.0         721509566.0         209733568.0         592362218.0        2245755202.0        1652682525.0        2865544364.0         721509566.0         209733568.0         592362218.0