 # Version information for this restart file 
 # current date 2022-11-29 19:12:59.471
 # current working dir /scratch/work/courses/CHEM-GA-2671-2022fa/fm1484/comp-lab-class/Week12/Runs/Proton
 # Program compiled at                              Sat Dec 12 18:27:15 EST 2020
 # Program compiled on                                         cs001.nyu.cluster
 # Program compiled for                                                nyu-intel
 # Source code revision number                                       git:8c64c6e
 &GLOBAL
   PRINT_LEVEL  LOW
   PROJECT_NAME PROTON
   RUN_TYPE  MD
   WALLTIME 21600
 &END GLOBAL
 &MOTION
   &GEO_OPT
     OPTIMIZER  BFGS
     MAX_ITER  100
     MAX_DR     3.0000000000000001E-03
     &BFGS
     &END BFGS
   &END GEO_OPT
   &MD
     ENSEMBLE  NVT
     STEPS  2000
     TIMESTEP     4.9999999999999994E-01
     STEP_START_VAL  1000
     TIME_START_VAL     4.9999999999999636E+02
     ECONS_START_VAL    -1.1027452372049922E+03
     TEMPERATURE     3.0000000000000000E+02
     &THERMOSTAT
       TYPE  GLE
       REGION  MASSIVE
       &GLE
         NDIM  5
         A_SCALE     1.0000000000000000E+00
         A_LIST     1.8595758612559999E+02    2.7263853498399998E-01    1.1526100454610001E+01   -3.6414578262600003E+01 \
             2.3173375816020001E+02
         A_LIST    -2.7809524712060002E-01    8.5951591808710006E-05    7.2189048017650004E-01   -1.9844539343859999E-01 \
             4.2409257583420001E-01
         A_LIST    -1.4825808131210000E+01   -7.2189048017650004E-01    1.3590902121280000E+00    5.1498896280349999E+00 \
            -9.9949268450990001E+00
         A_LIST    -1.0372189126880000E+01    1.9844539343859999E-01   -5.1498896280349999E+00    2.6661910891169999E+01 \
             1.1507715495310000E+01
         A_LIST     2.1801346360420001E+02   -4.2409257583420001E-01    9.9949268450990001E+00   -1.1507715495310000E+01 \
             3.0958394565589998E+02
         &THERMOSTAT_ENERGY
               1.3265181444430743E-03
              -3.8412599929949927E-03
              -5.3697333134437994E-03
               1.1001805983115861E-03
              -8.0192715691446929E-03
               4.8829829454748305E-03
               5.5538838880808076E-03
              -5.2589649918906101E-03
               1.7469576146003664E-03
               7.5375982927738784E-03
               8.3776914398908386E-03
              -4.0062209811771044E-03
              -4.6635105501884174E-04
              -6.2439972383324079E-03
               8.3699419926406213E-03
              -1.0298252294424817E-02
               9.5967272040552911E-03
              -3.2259889813244609E-03
               6.8027935740761977E-03
              -4.4440816604210337E-03
               5.8337118732949790E-04
              -4.1807509442383000E-03
              -4.9812529796580823E-03
               4.0874139742580316E-05
              -2.3394611867999433E-03
              -1.1696675417224955E-03
               1.8311509728955282E-03
               5.2867108804311091E-03
               1.7917030885944559E-03
               2.8297106454395703E-03
              -8.2588243596189680E-03
               2.1240456991056082E-04
               5.3076455848058181E-03
               3.9404320067419549E-03
              -1.1725037355969347E-02
               7.2497151156354659E-03
               2.9807114456115624E-04
               6.4539874534379974E-04
               1.3167005768661547E-03
               7.1837991056976531E-04
               2.6807681843736908E-03
              -7.8516264502886610E-04
              -2.9593094751504097E-03
               6.7092394977131204E-03
              -5.0605159712732162E-03
               1.7020152591410494E-03
              -1.6148701368984260E-03
               4.9390482573263769E-03
               8.9617063585833176E-04
              -2.0897674648912581E-03
               1.3480346231027540E-03
              -7.9583628162863147E-03
              -3.8410937798346988E-03
               6.9806451955117792E-03
              -5.0194721710279571E-03
              -4.9450063295041803E-04
               2.3839873142909342E-03
               1.5047032708117515E-03
               8.4083883167982258E-03
               1.3155910799969085E-03
              -2.0401388163195661E-03
               1.9983322508761768E-03
               8.9728858099777341E-03
              -4.9439907998958567E-03
              -1.1931421429665140E-03
              -2.4749658635009517E-03
              -8.4043621377884060E-03
               6.4208860364220483E-03
               1.1883760377943609E-02
              -6.6028096415733347E-03
               1.0554662736508980E-02
              -7.2245692732907504E-03
              -1.2230536867050890E-03
              -2.5033274287450928E-04
              -3.9651032662333403E-03
              -4.7921335559816943E-03
               2.7274307235368406E-03
               1.1442013272134417E-03
               7.1300659704384246E-03
              -7.0614536856959207E-03
               8.0355894466598195E-03
               1.1626087201113595E-03
              -1.0812463424722165E-03
              -8.0544555606798724E-04
               5.9029716003443072E-03
              -1.8212846419539015E-03
              -1.4950371417866704E-03
               4.2895980783313687E-03
               7.0981776157331743E-03
               9.0618177431085463E-04
              -7.1022560783920181E-04
              -8.4149666810373197E-03
              -6.0625503785525570E-04
              -4.6440272438153630E-05
              -6.4039527627110333E-03
               1.8914466169773760E-04
               4.7277202336209710E-03
               3.4932888735810901E-03
               5.5475646191736885E-03
               1.6983467766372535E-03
              -7.9303676549987421E-04
              -4.5575906794074047E-03
               4.1208274181045939E-06
              -7.3196396719587943E-03
               6.9952287617898136E-03
              -5.3859557584979558E-05
               6.9799128629192140E-03
               1.1017651171182344E-04
               4.7902459116797910E-03
              -8.9047800227953897E-04
              -1.2742551321229939E-04
              -4.8913718417173905E-03
               3.1675988585640105E-03
               7.6907535148200666E-03
               5.2689080881188829E-03
               1.6669097791800942E-03
              -9.5863059027817676E-03
               7.3889946688034558E-04
               2.0808618352166348E-03
              -5.9752338589780978E-04
              -3.8892726155582442E-03
               6.1760850356700862E-03
               1.2602683614162888E-03
               1.0470524888544613E-04
               2.4229140829804051E-04
              -1.1459580880538235E-02
               3.2369278221556085E-03
              -2.0556321361219908E-04
              -2.0502080951150989E-04
              -6.7177931228490197E-03
              -2.7403468174976059E-03
               6.6090631767286366E-05
              -4.1807958030255223E-04
               4.1755323713514782E-03
              -8.3801255235065541E-04
              -1.4698049231648444E-03
              -5.3141963155116136E-03
               5.5652627274944801E-03
               9.3225344659504626E-03
              -1.2471111612276328E-03
               7.9256364344464231E-03
               3.6383139681493586E-03
               1.2214315638597105E-03
               8.3982262951148856E-03
              -2.4253464996102387E-03
              -1.5608155983661853E-03
               2.7254329399827486E-03
              -8.9272187746092788E-04
              -3.6200651294515250E-04
              -2.6594600185956656E-03
              -3.6430005492278025E-03
               3.6472712789572047E-03
              -1.7444385528495058E-03
               1.7698507483679916E-03
               5.0613163358331570E-03
               1.5842939315271571E-03
              -1.8685458392618788E-03
              -3.8074838934155251E-03
               9.6363828007074801E-04
               2.6495463966400498E-03
              -3.0946993234832699E-03
              -1.0854750239702453E-03
              -3.6781292029112829E-03
              -1.4311947116915911E-03
               3.9889233974028581E-03
               1.4166942498232186E-02
               2.3312380163031956E-03
              -3.7769397341478501E-03
              -6.9258742819735776E-03
               5.0014514111469460E-03
               3.8669160425854716E-04
              -1.9528176409927555E-04
              -2.5474008124590987E-03
               3.9294931357064635E-03
              -3.3397608678948946E-03
               5.3957631602951188E-03
               3.7199943702038362E-03
               9.3961488737990539E-03
              -4.8283551286388959E-03
               8.5318493790401920E-04
              -2.8609832030222042E-03
              -1.3773467707579954E-03
               3.0450162398973787E-03
              -8.8627254021843710E-03
               3.9657402268490211E-03
               9.1533653801364199E-04
              -6.0343066165679362E-03
               4.2335718018631108E-03
              -5.6188536013915356E-03
               9.3346881055718790E-05
               3.3113440697840964E-03
              -2.5869292107635854E-03
              -1.3863805544976915E-03
               3.4745448459906954E-03
               3.7928317385505853E-03
              -8.7626732103168248E-04
              -5.8610423094310341E-03
               2.5328760691143608E-03
              -1.0557312598604546E-03
               1.5860114764957027E-03
              -1.4458378287715780E-03
              -5.5520776597527011E-03
               1.1424770549687506E-02
               1.3060922541690168E-03
              -6.5994042102784124E-03
               2.1756102147213320E-03
              -2.6373815951492045E-03
               6.8567517777737043E-03
               2.6435264814673558E-03
               4.5302976503990167E-03
               8.0732997480296650E-04
              -1.7924857600721364E-03
               1.2333301332710634E-03
               1.0495308021869618E-04
              -1.6963468955341608E-03
               1.1638336483978692E-03
              -4.5329792813639438E-03
               5.9941852388651134E-03
              -1.2980398094484931E-04
              -7.5674209241655428E-03
              -2.9325200186083545E-03
              -7.5861847835141400E-04
               1.8096650408617552E-03
               6.9207707685749881E-03
              -2.4600216636043654E-04
               2.3454440345836106E-03
               1.6605098525494734E-03
               3.3005825435944614E-03
              -7.0787685201403518E-03
               3.8626080145248362E-03
              -1.6149463198601986E-03
               1.9730382614694410E-03
               7.6676283098697237E-03
              -5.4619585571649126E-03
               3.2634551893222247E-03
              -1.0289566748018309E-03
              -2.6151932549575837E-03
               1.7448815261724357E-03
              -1.1476358275261242E-03
               4.6246812544690531E-04
               4.8128636681847928E-03
              -9.5300657755368542E-03
               5.4534511379279327E-03
               2.7566998660605328E-03
              -2.3167527825414887E-03
               3.0792883192430898E-03
              -2.3029832291376956E-03
              -3.9879682359773173E-03
              -1.0658645217982113E-03
              -4.2437655524922690E-03
              -4.1394101743873110E-04
               2.9529183466088012E-03
              -3.7311122662866043E-03
               8.6497899716515955E-04
               1.8490488844223952E-03
              -4.2163462051468797E-03
               1.4471253749521637E-02
              -4.3243402517098269E-03
               8.2713803598750673E-03
              -1.8577066744322458E-02
               7.7482078538061985E-03
               2.0706539610968653E-03
               2.0130834248131579E-03
               1.4756313588048780E-03
               5.5569183786552904E-03
              -5.8851190723656494E-03
               8.4146304329613911E-04
              -9.4839030184140811E-03
              -2.4672402397254026E-03
               2.5680906974743646E-03
               1.0406061966997718E-03
               3.6513591305600574E-04
               6.3407373944398809E-03
               7.5625568418057230E-03
               3.7585938323199835E-03
               4.0422675217438976E-03
              -1.6007388022583682E-02
               8.9451747546620899E-03
              -6.8283783496553823E-03
               4.4006339006983997E-03
              -5.2159592390296728E-03
               1.3172916944420414E-04
              -5.2258293840277623E-03
              -1.5423209338196544E-03
               2.3860266445318180E-03
              -7.4075371315362676E-03
               1.0589062544780670E-02
              -2.6486857496323818E-03
              -1.9661271017948870E-03
              -2.3430188131228409E-03
              -1.2528646454226935E-04
               4.2753975121346873E-03
               2.9710728787007939E-03
              -4.0612256805174192E-03
              -3.3797834105289896E-03
               3.3392645370980494E-03
              -3.0512911235393912E-03
               8.5684119863436200E-04
              -1.6835059563367503E-04
              -2.5674280738080027E-03
              -1.2825017441642234E-03
               2.5425592225674022E-03
              -2.9226907273787162E-03
               7.0908203106102479E-03
               6.4833892512745940E-03
              -1.2452091105396640E-02
              -4.9400411941247823E-03
              -1.2201947797616810E-03
              -2.2488015138697674E-03
               1.1101867728647085E-02
              -1.9341900350601220E-03
              -6.9664126241064115E-03
               6.3915850604389125E-03
               2.6604492021571058E-03
               1.2103996640870521E-03
               5.6881159277989100E-05
               7.6524072378712630E-04
               3.0669110688745548E-03
               1.3982865922492563E-03
               4.7108484020300860E-05
               7.1957555276400851E-03
              -3.6073765255489865E-03
               6.2077737522490289E-04
               4.6431560114790441E-03
               1.2164088517776397E-03
               3.5483925241410804E-03
               1.2773865406859202E-03
               1.0633283670475797E-02
              -1.6021698099204602E-03
              -1.2470284111797552E-02
               6.3051057327517216E-04
              -6.7982620827040747E-03
               6.0639785783267418E-03
              -1.2647717275499797E-03
               1.4995622931280829E-03
              -1.6571075752004226E-03
               1.1264574698823573E-02
              -5.4583844176114230E-03
              -5.3702586269684599E-03
               6.7826214379078801E-03
              -4.4934928058251904E-03
               1.5533628068049332E-03
               3.2625161594430773E-03
              -5.7959186024258047E-04
              -4.8587127823007042E-05
              -7.2024140788535217E-03
               2.8514879029733265E-03
               7.1587136306397242E-04
              -4.7634402392546142E-03
               9.8731664344876868E-04
               3.9964122138937868E-04
               5.4642276740890158E-03
              -7.5120282473741147E-03
               2.5807126621159330E-05
              -3.1818404458568129E-03
               1.1297323185310404E-02
              -3.3052061326010662E-03
              -4.0428753688066734E-04
              -1.2722104934499510E-03
               8.5662237094800125E-03
              -6.5261098927967150E-04
               1.7768396834010617E-04
              -1.2044516004674695E-02
              -2.2397913898637399E-03
              -3.8375877623967078E-03
               1.6858366811343287E-02
               1.0875434434000637E-03
               2.2251902322433514E-03
              -1.1451650662541049E-04
              -2.7016363937904225E-03
               1.6863659777233988E-03
               3.6694109275198011E-04
              -2.2420062628530830E-03
              -1.8735556836795024E-03
              -1.0203850871422439E-03
              -4.8779836812557721E-03
               4.5923007704864746E-03
               2.1909018990898068E-03
               2.6605359994185768E-04
               8.3343434034533100E-03
               2.2559243615078665E-03
               1.3789634145283688E-02
               2.5340181260064525E-02
               3.0747605874807887E-02
               2.3831815884071348E-04
               2.3149963884149375E-03
               5.8378611366790715E-03
               4.5567074692078532E-03
               1.5298373147103696E-02
               5.4141159584868018E-03
              -6.0153533346268134E-03
               3.3003390207252551E-03
              -9.4198724130436693E-04
              -7.7308179612114742E-03
               7.4277836222884303E-03
              -4.6969735955184553E-04
              -3.9970587220613703E-03
              -3.3072600040731149E-04
               5.2037323435531121E-03
              -4.8113061532144017E-03
              -4.8293807358075341E-03
               3.3178067726148588E-03
               5.1769185988819757E-04
              -1.9943807044280524E-03
              -1.2378496867600919E-05
               2.7359005936919054E-03
              -1.3607912906155035E-03
              -5.0455125447021291E-03
               1.6229040582837508E-03
               1.8304693408121976E-03
               3.9403101002635265E-03
              -2.4096101476251647E-03
               4.9123337094974975E-04
              -2.9671619054986581E-03
              -1.1379705125031818E-04
               3.1157293679770128E-03
              -4.7778955328845697E-03
              -1.1607920836122401E-03
              -1.6997788855565039E-03
               2.6610071917901840E-03
              -1.1703235672259038E-04
               8.5208580333312771E-04
              -4.9949388486967517E-03
              -3.1018277709716842E-03
               1.0683374727558030E-02
              -4.0335137428882464E-03
               1.0107565271580232E-03
              -3.2394527961604174E-03
               2.6503318767821088E-03
               8.7038759506762667E-03
              -7.4052942219630076E-03
              -4.1978119931687027E-03
              -9.1150110771190760E-03
               2.1194527066197978E-03
               6.7564589530084602E-03
              -9.9128268667264844E-04
              -1.1110569825679068E-03
              -3.4112289998655390E-03
               5.7786473518192105E-03
              -1.8478166963959079E-03
               3.4990872037434996E-03
               1.3390200416276497E-03
              -2.1087973997416078E-03
               4.0192344343921872E-03
              -8.1246341219519836E-04
               4.1987818707230236E-03
               6.7550285761870579E-03
               6.5959077656578529E-03
               5.0765209003251419E-03
              -1.3293804065492527E-02
               3.8961793691229068E-03
              -8.8828989710450484E-03
               7.0635463927942472E-03
              -2.8678806845533426E-03
              -1.2991861336402680E-03
              -3.4506344212587091E-03
               5.8867878730878005E-04
               5.7070106080607547E-03
              -3.3720310171400526E-03
               2.7368016664726510E-03
              -9.2513053128360796E-04
               5.5298313442552821E-03
              -1.3765515015263527E-03
               4.6319451144523236E-03
               8.1697660296006190E-03
               4.3769981146783354E-03
              -2.9652723907254526E-03
              -8.3218936246256103E-03
              -4.4651046584332106E-04
               1.0931795708204925E-03
               1.5768811245410294E-03
              -1.1295106195290268E-04
               1.5730385731424967E-03
              -9.4983302647458866E-04
               8.7078759410038893E-04
               4.0359116661825853E-03
               1.4979254144204608E-03
               2.8461198547179074E-03
              -1.6569928435782588E-03
               1.3981154039670895E-03
              -4.1602936635504330E-04
              -9.0507599883725355E-04
               4.1055940985406832E-03
               7.7232887472788890E-03
               8.3468110595477756E-03
              -4.9676316638957389E-03
               6.2932392453453573E-04
               9.3848087962744380E-04
              -4.1315621667394218E-03
               1.8962617086584011E-03
               3.5789826131242406E-04
               1.7043791787504676E-03
               1.9115082944389356E-03
              -5.6558587396780295E-03
              -2.7353248709059879E-03
               7.9682409145182356E-04
               6.3038817171540574E-03
               2.0528997751442085E-05
               5.3001514041175245E-03
               2.0559212052274440E-03
              -8.0888947453692855E-04
              -1.9495504831256061E-03
              -1.0849489905228944E-02
               1.8629897962541477E-02
              -1.4019621516574209E-03
              -4.7356078419338024E-03
               8.5141042666560111E-04
               1.2361938030786910E-03
               4.7399587779514340E-03
              -4.9007171172680425E-04
               1.9618662114789013E-03
               1.5880748696866813E-03
              -1.0635598168361292E-02
              -7.9429508391625214E-03
               9.3724746547017446E-03
              -4.4911130747121364E-03
              -6.3753771141562029E-04
               3.2380653354998560E-04
               1.3709311811017464E-03
               5.8915881403743932E-03
              -1.0423231908912771E-02
               4.1929681053213836E-03
               1.8335361172330531E-03
              -3.7683187927821486E-03
               1.2109813246496768E-03
               3.5929767995541467E-03
              -7.8544509281020976E-03
               2.3254935728036778E-03
              -5.6225597846329195E-03
               5.1674771180463402E-03
               2.8734223591679858E-03
               7.7726395631978057E-04
              -4.2626649735848067E-03
              -1.4689012260398623E-03
               5.7103927576100753E-03
               6.0721108992160284E-03
               4.3764731384948897E-03
              -5.1985195529671404E-03
              -4.6335658613806917E-03
               8.8117509605240094E-03
              -7.5940702528165902E-03
              -3.0688128279332842E-04
               7.3104640909844179E-03
               2.9764714930027012E-03
               3.7412076828917391E-03
              -4.3353101256123497E-03
               1.8632291092470544E-03
              -2.1435649942769283E-03
               1.1125838278529952E-02
               1.0328754277163493E-02
              -1.0643983259855371E-02
              -1.1237651617529806E-02
              -2.2125467093006461E-03
              -2.5500994594074415E-03
               2.5288648291061119E-03
              -6.2284401811198474E-03
              -1.0369690622572558E-03
              -1.5376524714663319E-03
               5.6990214028394218E-03
               4.8573625328632661E-03
               6.1512847812998702E-03
               6.0221104562151375E-03
               4.0488592749331276E-03
              -4.6274056562439639E-04
              -2.7014757283254712E-03
              -1.4380155321249031E-03
               1.0277954347355056E-03
              -1.6111627389517442E-03
               4.2988721948097686E-03
              -3.4537343839626104E-03
              -1.9686707479701702E-03
              -7.3393709291835283E-03
              -3.1175109915780970E-03
              -1.0764150955580035E-02
               2.9374245439358869E-03
               2.1575149007049335E-03
               1.0489142939502044E-02
               6.6826801001397765E-03
              -7.3433259084653910E-03
         &END THERMOSTAT_ENERGY
         &RNG_INIT
Wiener process for Thermostat # 1        1 F T T  -9.8236738167888460E-01         226733040.0        4248387519.0        1164353849.0        2758509449.0        3644127687.0        1764793484.0             12345.0             12345.0             12345.0             12345.0             12345.0             12345.0             12345.0             12345.0             12345.0             12345.0             12345.0             12345.0
Wiener process for Thermostat # 2        1 F T T  -1.4171306107827426E+00        1528154308.0        2775625301.0         197130159.0        1452211673.0        1835562137.0        1983376171.0        3692455944.0        1366884236.0        2968912127.0         335948734.0        4161675175.0         475798818.0        3692455944.0        1366884236.0        2968912127.0         335948734.0        4161675175.0         475798818.0
Wiener process for Thermostat # 3        1 F T T   8.6049543281786645E-01        2248570378.0        1724762616.0          52903713.0        3229622658.0        3199004837.0        4241126217.0        1015873554.0        1310354410.0        2249465273.0         994084013.0        2912484720.0        3876682925.0        1015873554.0        1310354410.0        2249465273.0         994084013.0        2912484720.0        3876682925.0
Wiener process for Thermostat # 4        1 F T T  -1.5460863137690717E+00         957380376.0         510326667.0        2247033635.0        2033071685.0        3054261466.0        3462352516.0        2338701263.0        1119171942.0        2570676563.0         317077452.0        3194180850.0         618832124.0        2338701263.0        1119171942.0        2570676563.0         317077452.0        3194180850.0         618832124.0
Wiener process for Thermostat # 5        1 F T T   1.5428690481661575E-01        4203301200.0         738999836.0        1485820986.0          20648636.0        2223680357.0        4294941489.0        1597262096.0        3906379055.0        3312112953.0        1016013135.0        4099474108.0         275305423.0        1597262096.0        3906379055.0        3312112953.0        1016013135.0        4099474108.0         275305423.0
Wiener process for Thermostat # 6        1 F T T   7.0411917217518150E-01        1265311014.0        3687607523.0        1792102642.0         142025920.0         459804801.0        1211121065.0          97147054.0        3131372450.0         829345164.0        3691032523.0        3006063034.0        4259826321.0          97147054.0        3131372450.0         829345164.0        3691032523.0        3006063034.0        4259826321.0
Wiener process for Thermostat # 7        1 F T T  -9.5744195640119531E-02        4040223344.0        4246262317.0         329086624.0          28777921.0        2946509694.0        1489700490.0         796079799.0        2105258207.0         955365076.0        2923159030.0        4116632677.0        3067683584.0         796079799.0        2105258207.0         955365076.0        2923159030.0        4116632677.0        3067683584.0
Wiener process for Thermostat # 8        1 F T T  -1.2413826789147817E-01         252045112.0        2848200345.0         154646410.0        1271924195.0        1873079261.0        3351978939.0        3281794178.0        2616230133.0        1457051261.0        2762791137.0        2480527362.0        2282316169.0        3281794178.0        2616230133.0        1457051261.0        2762791137.0        2480527362.0        2282316169.0
Wiener process for Thermostat # 9        1 F T T   1.0331244080464512E+00        3784506675.0        1914172684.0        3527875272.0        1610827989.0        3855196701.0        1117597481.0        3777646647.0        1837464056.0        4204654757.0         664239048.0        4190510072.0        2959195122.0        3777646647.0        1837464056.0        4204654757.0         664239048.0        4190510072.0        2959195122.0
Wiener process for Thermostat # 10       1 F T T   2.1466585360569199E-01        3057685686.0        2869029583.0         411221469.0        2821893460.0         322924656.0        1143227575.0        4215590817.0        3862461878.0        1087200967.0        1544910132.0         936383720.0        1611370123.0        4215590817.0        3862461878.0        1087200967.0        1544910132.0         936383720.0        1611370123.0
Wiener process for Thermostat # 11       1 F T T  -4.4132046785776799E-02        1554543736.0        2717576499.0        4135075403.0        2618383353.0         642871762.0         249586537.0        1683636369.0         362165168.0         814316280.0         869382050.0         980203903.0        2062101717.0        1683636369.0         362165168.0         814316280.0         869382050.0         980203903.0        2062101717.0
Wiener process for Thermostat # 12       1 F T T  -5.6161533877704317E-01        1770324141.0        3770017049.0         190859559.0         764828178.0        2918138424.0         736540625.0         272317999.0         166758548.0         310112982.0         201045826.0        1680231254.0         118290799.0         272317999.0         166758548.0         310112982.0         201045826.0        1680231254.0         118290799.0
Wiener process for Thermostat # 13       1 F T T   9.7554409384929153E-01        3627045108.0        1898589428.0        2752141753.0          85759421.0        2499273175.0        1137986601.0        2245755202.0        1652682525.0        2865544364.0         721509566.0         209733568.0         592362218.0        2245755202.0        1652682525.0        2865544364.0         721509566.0         209733568.0         592362218.0