 # Version information for this restart file 
 # current date 2022-11-29 22:31:45.250
 # current working dir /scratch/work/courses/CHEM-GA-2671-2022fa/fm1484/comp-lab-class/Week12/Runs/Proton
 # Program compiled at                              Sat Dec 12 18:27:15 EST 2020
 # Program compiled on                                         cs001.nyu.cluster
 # Program compiled for                                                nyu-intel
 # Source code revision number                                       git:8c64c6e
 &GLOBAL
   PRINT_LEVEL  LOW
   PROJECT_NAME PROTON
   RUN_TYPE  MD
   WALLTIME 21600
 &END GLOBAL
 &MOTION
   &GEO_OPT
     OPTIMIZER  BFGS
     MAX_ITER  100
     MAX_DR     3.0000000000000001E-03
     &BFGS
     &END BFGS
   &END GEO_OPT
   &MD
     ENSEMBLE  NVT
     STEPS  2000
     TIMESTEP     4.9999999999999994E-01
     STEP_START_VAL  1937
     TIME_START_VAL     9.6849999999998647E+02
     ECONS_START_VAL    -1.1027452372049922E+03
     TEMPERATURE     3.0000000000000000E+02
     &THERMOSTAT
       TYPE  GLE
       REGION  MASSIVE
       &GLE
         NDIM  5
         A_SCALE     1.0000000000000000E+00
         A_LIST     1.8595758612559999E+02    2.7263853498399998E-01    1.1526100454610001E+01   -3.6414578262600003E+01 \
             2.3173375816020001E+02
         A_LIST    -2.7809524712060002E-01    8.5951591808710006E-05    7.2189048017650004E-01   -1.9844539343859999E-01 \
             4.2409257583420001E-01
         A_LIST    -1.4825808131210000E+01   -7.2189048017650004E-01    1.3590902121280000E+00    5.1498896280349999E+00 \
            -9.9949268450990001E+00
         A_LIST    -1.0372189126880000E+01    1.9844539343859999E-01   -5.1498896280349999E+00    2.6661910891169999E+01 \
             1.1507715495310000E+01
         A_LIST     2.1801346360420001E+02   -4.2409257583420001E-01    9.9949268450990001E+00   -1.1507715495310000E+01 \
             3.0958394565589998E+02
         &THERMOSTAT_ENERGY
               2.5913854637975818E-03
               6.5773220576175145E-04
              -6.1115418745011259E-03
               6.6660370713860937E-05
              -8.4253542201935712E-03
               3.5051211758945770E-03
               5.5106497554453914E-03
              -4.7229349060753795E-03
              -1.3196704025633516E-03
               3.7316882292675198E-03
               7.6151652151978640E-03
               9.0603797861302801E-04
              -3.8987651366784447E-04
              -4.0953597750946298E-03
               5.8320012388596455E-03
              -1.3692048048281023E-02
               1.3064772891532067E-02
              -1.4745715598632142E-03
               2.3455629271203204E-03
              -1.1360075937455010E-03
              -2.6993527074481256E-03
               1.8789370610203596E-03
              -4.0130517264046752E-03
              -5.1045580066762753E-03
               6.8393324951654946E-03
              -1.0043753698967321E-02
               2.6514948135965351E-03
               2.6603164515513157E-03
               4.6343484304014583E-03
               3.1087596250673304E-03
              -5.4296429540425795E-03
               6.8966001180817797E-03
               4.7791101179511591E-04
               1.8672743256336697E-03
              -5.0144258831213880E-03
               7.7065176633053841E-03
               6.1680471643869037E-03
              -4.0199373432204194E-03
               1.9929083466941385E-03
               1.0001572228375191E-03
               1.1184475675776094E-02
              -1.1694389451888505E-02
              -8.6109134050873018E-03
               9.4555859205694790E-03
               7.4077617608369836E-04
               3.7091216487973597E-03
               2.0251912639838976E-03
               5.3854049824635609E-03
               2.4612217531265477E-03
               3.7435613727642581E-03
              -4.4540390430197734E-03
               6.1641280989866007E-05
              -4.8107552386385732E-03
              -2.9162851891365933E-03
              -1.3823727735178289E-02
              -1.3550524956924140E-03
               1.7763503565660504E-03
              -2.4763518399335775E-03
               1.0183929605603759E-02
               2.4352898797741517E-03
              -6.1652266611148029E-03
               5.0743493598874381E-03
               1.0407151180750789E-02
              -7.1383873912152706E-03
               5.5095409962103289E-03
               4.2194483362303680E-03
              -1.2440636128536960E-02
               1.4215929698123549E-02
               1.0111408589102755E-02
              -2.2272235487227298E-02
               1.3137066822682484E-03
              -7.0788543317434616E-03
              -8.9237918647605361E-03
               1.1546360332204883E-03
              -2.8371188581000667E-03
              -5.2580406646934204E-03
               4.0082816686211331E-03
               6.8459742492654558E-03
               1.1397910314022083E-02
              -5.8779588466481370E-03
               1.0100742376314134E-02
              -7.6362021947322303E-04
              -2.3575791671105397E-03
               1.5887599952778347E-03
               5.5179784055665176E-04
               8.8667785156854300E-04
               3.9436100265771929E-03
               4.2583584160318629E-03
               7.9614960257048811E-03
               2.1797361639885578E-03
              -1.0337997389420403E-03
              -9.9056172127050292E-03
               1.8876643290499174E-03
               7.2711995674748500E-03
              -9.9956623483141854E-03
              -1.3967510331452568E-03
               1.4677695083234178E-04
               1.6323511143060050E-04
               6.5511724581526964E-03
               6.3904088296178269E-04
              -6.7592345355867358E-03
              -2.9637909376398026E-03
               4.7774199699561534E-03
              -7.9016726667634797E-03
               1.7463987989748179E-04
               9.3876606569456844E-03
               1.1780427886362908E-03
              -4.5036288672338654E-03
               7.3022347732692328E-03
              -6.9000515654739239E-04
               1.7095193680117099E-03
              -3.2843978055549532E-04
               7.6285533927706577E-03
               1.3946540511281953E-02
               1.6752564093172183E-03
              -5.2111331627279780E-04
              -5.5306749602762389E-03
               1.5682580744383883E-03
              -7.3321675524183898E-05
               5.5938525884128296E-03
              -5.3400814139189785E-04
               5.8855331118895741E-03
              -6.2244138205187847E-03
              -2.9390650797813437E-03
              -3.5445308359591376E-03
              -8.4921842526045014E-03
               5.0002727013551016E-03
               2.5182234596279321E-03
              -9.7353530994263437E-04
               8.1173508331602220E-03
              -2.4311729555569657E-03
              -4.0470020567544736E-03
               4.3155487103975054E-03
              -1.3423398234426076E-03
              -1.1003685747425194E-03
              -1.6003350139790315E-03
              -3.2370810330091941E-03
               3.8149729160919946E-03
               1.4387293103167276E-02
              -3.7944136255306207E-03
               2.3341557039620884E-03
               5.7248058784772279E-03
              -2.3852053816168207E-03
               1.0812803179874649E-02
              -1.7206755665808164E-03
              -2.5182701340323035E-03
               5.1765664302531539E-03
               8.4402390839908460E-03
              -2.9808275180111116E-03
              -8.7511515381819734E-03
              -1.6081768829949199E-02
               9.9559172390575375E-03
               1.7158664604437035E-03
              -5.6720509879690597E-04
               9.9992514407419453E-03
               2.9946834451292101E-04
              -4.5163461824030771E-03
              -6.9251220310050424E-04
               2.1931939549211694E-03
              -2.3705515205342531E-03
              -4.2043808778415024E-03
              -1.6678427116964003E-03
              -3.8124746733951922E-03
               3.3392713443541242E-03
               9.6203106542487784E-03
               2.1643607429354273E-02
              -2.0925254352483734E-03
              -9.6928561029692994E-03
               8.0764240974474629E-04
               1.2262079228266666E-02
              -8.3295806808139500E-03
               2.8338415726368756E-04
              -1.3613447063528848E-03
              -6.7267133395874641E-04
              -1.1063741277124877E-03
               8.9290042270719454E-03
              -5.9494517258649408E-03
               5.4751280729402121E-03
              -7.0238986838689417E-04
               1.2793141446157128E-02
              -2.2988740666605410E-03
              -7.6891912777339172E-03
               6.4085025635037011E-03
              -1.0933603764516206E-02
               1.4374123626044502E-02
               1.5068958036500630E-03
              -8.4042841847431615E-03
               4.0414894541341865E-03
              -7.2193260597512715E-03
               1.6766416224768650E-03
               2.3541452414072520E-03
               2.2009232892432269E-04
               5.5213794760636400E-04
               8.7783369862721797E-03
              -4.2250916988272307E-03
              -2.9057331225339463E-03
              -7.8664301640961089E-03
               4.8703409097721187E-03
              -1.6789928926048017E-03
               1.9931290645701515E-03
              -8.0757259937616586E-03
               9.6067116649118257E-03
               1.4245842231236702E-02
              -6.3292097892076668E-03
              -1.0174482985687296E-02
               1.3610245002439722E-02
              -8.5066827865028678E-03
               2.7152826654892699E-03
               1.4015641323769897E-03
              -2.6613014262433839E-03
               3.9003396276944551E-03
              -1.4205445955838546E-02
               1.0016259158029462E-02
               8.1419468505044574E-03
               4.3059777286688221E-04
               1.5538049527672707E-04
              -1.3275111599536706E-02
               8.0976343925759364E-03
               3.4217567405904945E-03
              -1.3595068420662538E-02
              -3.2110440296530627E-03
              -3.1701720762088208E-04
               4.9700141418745469E-03
               1.4012001570546037E-02
               1.2996454101893888E-03
               6.7640157317012464E-03
              -2.6567116643385481E-03
              -7.4345372110728764E-04
              -2.2427749357671308E-04
              -3.9371856779087631E-03
              -2.0349527249421645E-03
               3.0437382511287552E-03
               1.9823829499196990E-02
              -9.0527682365764452E-03
               5.8676658875703976E-03
               2.5211469583974015E-03
              -1.7578638609095911E-03
              -2.9929831981558601E-03
               5.7209140578502208E-03
               6.5357415763319529E-03
               5.2594919609194072E-03
              -6.4683207010168024E-03
              -8.1266923054588275E-04
              -2.1676307284094853E-03
               9.8878158853355847E-04
               4.6708609072735876E-03
               4.2463020153112926E-03
              -1.6762034363366559E-03
              -5.8876925854591681E-03
              -4.4961249058284077E-03
              -1.5293441319860991E-03
              -2.9863984236972100E-03
              -2.5025150648331669E-03
               2.1977321947256275E-03
               1.4987478715739559E-03
              -6.0615499122857863E-04
               1.4296608862417645E-02
              -5.7349479601861595E-03
               1.6569704651785543E-02
              -3.5888861235316129E-02
               2.1618986769940864E-02
               6.6247830259769519E-03
               3.6549243731929942E-03
              -2.5280716477490881E-03
               4.6482124015821283E-03
              -8.5405677168724301E-03
               1.6111725210022478E-03
              -1.1174238218634511E-02
               1.1159060947171312E-02
               3.8441053010005101E-03
               4.9399121834281697E-04
              -2.3480897026764581E-03
              -1.2386195091100311E-03
               1.0479754461990350E-02
              -2.9508467444744097E-04
               8.6292772958235699E-03
              -2.4495955251601829E-02
               1.0912016727952400E-02
              -3.9476709325356072E-03
               4.4741713552641817E-03
              -5.2770818124856607E-03
               1.9526438914601381E-04
              -1.0587176841096517E-02
              -4.2901487987316430E-03
               1.0022910596195248E-03
              -3.8194393770073368E-03
               1.0191361765070957E-02
              -7.3864008513824710E-03
              -6.5008068752091539E-03
              -1.9386966633312840E-03
              -2.6793102607707512E-03
               8.6626961376563959E-03
              -3.7039109343743348E-03
              -2.4308253835343256E-03
              -1.5305184999142589E-03
               8.7917384399876560E-03
              -8.0580926779734146E-03
               6.1407540506011847E-03
              -2.3349710541998819E-03
              -3.5393818703343830E-03
              -1.1565160225565886E-03
               1.4172009927854272E-03
               2.9641004250221944E-03
               2.6053467927857504E-03
               7.2078163303096673E-03
              -7.3816989999815541E-03
              -8.5571073483489916E-03
               1.7378462012394172E-03
              -4.1477005964821916E-04
               1.8292042815954573E-02
              -8.0933692773895657E-03
              -3.7236574054843176E-03
               2.5587836283271345E-03
               7.7319834094143388E-03
              -3.7569940823326325E-03
              -1.4612764878921809E-03
               2.3157035849787983E-04
               7.1642889523011594E-03
               3.0580885184888352E-03
              -1.0349022617392420E-02
               1.3993309693307632E-02
              -8.5550728960582679E-03
              -1.8576902030949664E-03
               5.5852280731407637E-03
               4.7834074919819378E-04
               5.6797886450165999E-03
              -1.8531100710813008E-03
               1.2460631169562458E-02
               2.1913798862387567E-03
              -7.8619082009953947E-03
               6.5536281400984525E-03
              -1.1418742031773460E-02
               2.8562146339501941E-03
               2.5664833771726738E-03
               8.5992967965665100E-04
              -1.5064870985660134E-03
               8.2553978165306185E-03
              -9.5803909675933590E-03
              -3.3990815840685340E-03
               9.5480835717133613E-03
              -1.0455791744224039E-02
               2.4975592146073474E-03
               2.8606886492182292E-03
              -7.4517016912891282E-03
               1.0006788387244790E-03
              -2.6061665072879127E-03
              -3.7085875785839036E-04
               1.4886454849140582E-03
               3.1937674357199589E-03
               4.7137543168824479E-03
              -9.6434585472914545E-04
               4.5549181050232113E-03
              -1.0856417064830495E-02
              -4.3066785583956045E-03
              -1.1535919308023163E-02
               1.0471445948762802E-02
               2.6530233449045251E-04
              -4.7555720758832316E-03
              -9.9984738456388028E-03
               1.5810292516242015E-02
               7.3630930108246949E-04
              -4.0083418278083725E-03
              -6.7311417259686762E-03
              -1.1614800198999583E-03
              -1.0005153791014567E-02
               1.7412078431878617E-02
              -4.8536087157011681E-04
               1.1335390615564670E-03
               4.7161996085247826E-03
              -1.4924669550284144E-03
               3.4254269384645492E-03
              -1.6375466313936361E-03
               7.9744192395271834E-04
               4.3637417714374183E-03
               6.6681393374638234E-04
               8.4600885608382556E-04
               6.1879716462044298E-03
              -1.4107915614970764E-02
               1.5203424699657873E-03
               1.3078311873330072E-02
               2.1419686330741892E-03
               6.3743445418967988E-03
               2.5468219061403730E-02
               2.6690765845563891E-02
              -9.4419291482094412E-03
               3.6024296180968544E-03
               1.4662103100589819E-02
               4.1090667097937452E-03
               1.8269380035686594E-02
               1.9361795092478953E-03
              -9.4048150348112532E-03
               5.7682982624523245E-03
               1.7709612741287145E-03
              -7.2818177549452611E-03
               1.4639924823709129E-02
              -4.5766634061445346E-03
              -1.3239268758817721E-04
              -4.1226192321717264E-03
               6.3327994098538194E-03
              -5.4122099559539638E-03
              -5.2972537730513729E-03
               6.0273542317945909E-03
              -4.1734333853225584E-03
              -7.3911920494911130E-03
               2.8162829630193746E-03
              -8.2526639760263677E-03
               1.2609049081064221E-03
              -3.2024512526174953E-03
               5.6352609004193903E-04
              -1.8019826274086309E-04
              -2.5240904840978140E-03
               1.4500108358607143E-03
               2.2257993340143965E-03
               1.8287358199088233E-03
              -1.2086952818309555E-02
               9.5613089207573273E-03
               2.4483718940173640E-03
              -3.7332440357114591E-03
               1.7883901646883033E-03
              -1.2029824629861876E-03
               2.1497350620663519E-03
              -2.4926540476598821E-03
              -3.4630936807826837E-03
              -3.5731066681512170E-03
               1.3444794686670291E-02
              -5.0592538709319426E-03
              -2.6704523837272000E-03
              -8.7013627017235875E-04
               1.9970894111575972E-03
              -2.7572310171150843E-03
              -1.3074846786815413E-02
              -5.3458377080410893E-03
              -1.0477529152081730E-02
               1.4187016346874370E-02
               8.5019144078244454E-03
               3.3062351985298265E-04
              -1.7976075349105539E-03
              -3.7269582341930016E-03
               3.7731855864438961E-03
               4.0298843352358019E-03
              -6.4501014253612095E-03
               2.1441390347411173E-03
               1.7452980206649543E-03
               2.5642039092645965E-03
              -6.1333457175482913E-05
               4.7829666380166634E-03
               2.0887521551697214E-03
               1.0118681832579801E-02
               1.9736434647757229E-03
              -8.7067914050610821E-03
              -1.0056756062962300E-02
              -9.6181562057959108E-03
               6.3028395289379960E-03
              -1.0409179819544522E-04
               1.0850807965982416E-03
              -8.9908343496077677E-03
              -1.9096049441013885E-03
               3.3441680541972563E-04
              -3.4270462017722582E-03
              -1.0237070039975237E-03
               1.1898947154798264E-03
               1.4365978241816679E-02
              -3.5560436109675683E-03
               1.0433590540854205E-02
               7.3051144844104932E-03
               2.6075964292665271E-03
              -1.0013785965504366E-02
               2.4465324212051168E-03
               4.8101862094388388E-03
              -8.3958450408018678E-03
              -2.2973612360293596E-03
              -5.9276985349621964E-03
               2.1683973695766409E-03
               2.2420117255177153E-04
               1.8344843821469132E-03
               1.0163446093286198E-02
               3.2568842684922127E-03
               3.8375702590930892E-03
              -1.0843045061561802E-02
              -7.8518304243922288E-04
              -1.9344217772689089E-03
              -2.0457161365675337E-03
               1.1454009932023024E-02
               8.6796563060541065E-03
               3.4263513776097371E-03
              -3.4983429004542400E-03
               9.2549211191688078E-03
              -8.2483165576894123E-03
              -6.3295582307237907E-03
               5.6435586401712369E-04
               6.2962981381905828E-03
               3.1190791509802260E-03
              -1.7355552026688831E-03
               3.7669501175751248E-03
              -1.1197106928307074E-02
              -1.1327639560249445E-03
               1.4337694698097302E-02
              -9.3409043680639896E-03
               5.1064249867986437E-03
               5.3970181303729502E-03
               3.4492895786055761E-03
              -3.7631867771176857E-03
              -9.2672235903056531E-03
               1.1392184890075213E-02
               2.0654058026692117E-03
              -8.6940090834364738E-03
              -2.4366348925775883E-03
              -2.4543425834568115E-03
               8.5331474165238549E-03
               5.9550374540345190E-04
              -4.1963060191882303E-03
               2.7265183628368576E-03
              -7.8924168220162235E-03
              -8.7226929700487225E-03
               1.5723776871607933E-02
              -1.7806940544475690E-02
              -2.1180044613819124E-03
               1.2743404524899250E-03
              -4.0455504319796492E-04
               1.7414097654237782E-02
              -1.3757674751110270E-02
              -5.0958255801683162E-03
               1.1186522988065674E-02
              -1.3720594484629750E-03
               1.7401348861293432E-03
               8.0549098781001263E-03
              -9.2431794028803287E-03
              -2.5017099305245155E-03
               3.5715125073954718E-04
               7.6389507042555847E-03
               5.0740694297643557E-03
               1.1826348592650722E-02
              -1.5404321290159645E-02
              -1.0129021801602116E-02
               6.3807484310095131E-03
               5.5366225133714666E-03
               3.3487662985418934E-03
              -2.0819394129959774E-02
               3.6156434883942760E-03
               7.8703546795406247E-03
              -8.3459862292182274E-03
               8.3731811055655862E-03
               4.7933969752111168E-03
               5.2203565232312359E-04
               4.1660891889197258E-03
              -8.7115479964790382E-03
               4.5215177982835088E-03
              -9.1291297152443684E-04
               1.0232510866209540E-02
               1.0442186419991948E-02
              -8.6893752698802805E-03
              -1.4615833662014353E-02
              -4.5463615766532899E-03
               2.7627729673723603E-04
              -2.9696408706357418E-03
              -5.3556666210707740E-03
              -1.6633501425558682E-03
               1.3990191961704848E-02
               7.9011866788996857E-03
              -1.8966276598453814E-03
               1.0179189175222444E-02
               7.2400421494650822E-03
               8.7720686297934061E-04
              -4.0036171645572191E-04
              -3.4681648948112144E-04
              -6.0900590776908608E-03
               9.5330131944845926E-04
              -1.4173419311467629E-05
              -3.1236019062270224E-03
              -3.5817619806675781E-03
              -5.0608784176810742E-03
              -5.4604933820367619E-03
              -2.8842639741238035E-03
              -1.3780570478230949E-02
               6.1615289821852354E-03
               1.3236801290234610E-02
               1.2665227093628835E-02
              -1.5770294047951774E-03
              -6.5299331360091674E-03
         &END THERMOSTAT_ENERGY
         &RNG_INIT
Wiener process for Thermostat # 1        1 F T T  -8.0574509596145177E-02         820818932.0        4201285822.0        4198069083.0        1544797546.0        2428036890.0        3254807620.0             12345.0             12345.0             12345.0             12345.0             12345.0             12345.0             12345.0             12345.0             12345.0             12345.0             12345.0             12345.0
Wiener process for Thermostat # 2        1 F T T   2.5069915859170561E-01         967761208.0        3561775935.0        1837506959.0        3235165023.0         385792695.0        1958700757.0        3692455944.0        1366884236.0        2968912127.0         335948734.0        4161675175.0         475798818.0        3692455944.0        1366884236.0        2968912127.0         335948734.0        4161675175.0         475798818.0
Wiener process for Thermostat # 3        1 F T T   3.4374734169462684E-01        1725689995.0        3729764478.0        3467210988.0          83836123.0         943995859.0        2336040023.0        1015873554.0        1310354410.0        2249465273.0         994084013.0        2912484720.0        3876682925.0        1015873554.0        1310354410.0        2249465273.0         994084013.0        2912484720.0        3876682925.0
Wiener process for Thermostat # 4        1 F T T   3.0453679883556822E-01        3369508448.0        4170291678.0        1155850114.0        1855126307.0         757011683.0        3854836110.0        2338701263.0        1119171942.0        2570676563.0         317077452.0        3194180850.0         618832124.0        2338701263.0        1119171942.0        2570676563.0         317077452.0        3194180850.0         618832124.0
Wiener process for Thermostat # 5        1 F T T   4.7194014815640167E-01        1883476808.0        1457936079.0        3834093741.0        3463905817.0        3100925807.0        2935329097.0        1597262096.0        3906379055.0        3312112953.0        1016013135.0        4099474108.0         275305423.0        1597262096.0        3906379055.0        3312112953.0        1016013135.0        4099474108.0         275305423.0
Wiener process for Thermostat # 6        1 F T T   8.4590014785624068E-01         383938314.0        3584921457.0        3494880880.0         405095484.0         234547531.0         770810986.0          97147054.0        3131372450.0         829345164.0        3691032523.0        3006063034.0        4259826321.0          97147054.0        3131372450.0         829345164.0        3691032523.0        3006063034.0        4259826321.0
Wiener process for Thermostat # 7        1 F T T  -5.7056658728378784E-01        2514832235.0         268722878.0        2164310913.0         801222244.0        3297283411.0        1393959384.0         796079799.0        2105258207.0         955365076.0        2923159030.0        4116632677.0        3067683584.0         796079799.0        2105258207.0         955365076.0        2923159030.0        4116632677.0        3067683584.0
Wiener process for Thermostat # 8        1 F T T   1.3936621713883413E+00        1699497581.0        2892378068.0        3404001188.0        2548453553.0        3911673271.0        3397044869.0        3281794178.0        2616230133.0        1457051261.0        2762791137.0        2480527362.0        2282316169.0        3281794178.0        2616230133.0        1457051261.0        2762791137.0        2480527362.0        2282316169.0
Wiener process for Thermostat # 9        1 F T T   2.5011824440883013E-01        4169327315.0        3680758343.0         662629842.0        2087055095.0        1216320054.0        1508512189.0        3777646647.0        1837464056.0        4204654757.0         664239048.0        4190510072.0        2959195122.0        3777646647.0        1837464056.0        4204654757.0         664239048.0        4190510072.0        2959195122.0
Wiener process for Thermostat # 10       1 F T T   2.1580861760811451E-01         932554882.0        1373325972.0        1683717934.0        2910463492.0        2805972889.0          88231401.0        4215590817.0        3862461878.0        1087200967.0        1544910132.0         936383720.0        1611370123.0        4215590817.0        3862461878.0        1087200967.0        1544910132.0         936383720.0        1611370123.0
Wiener process for Thermostat # 11       1 F T T  -2.6653895507544428E-01        2023123915.0        1156464662.0        1764717158.0        3193119806.0        3672827077.0        2860598387.0        1683636369.0         362165168.0         814316280.0         869382050.0         980203903.0        2062101717.0        1683636369.0         362165168.0         814316280.0         869382050.0         980203903.0        2062101717.0
Wiener process for Thermostat # 12       1 F T T   1.9409390697781108E+00        2282759153.0        2916001542.0        4242185106.0        2284321770.0         453518326.0         448340267.0         272317999.0         166758548.0         310112982.0         201045826.0        1680231254.0         118290799.0         272317999.0         166758548.0         310112982.0         201045826.0        1680231254.0         118290799.0
Wiener process for Thermostat # 13       1 F T T   6.9170230436196134E-01        1747454826.0         596530662.0        3219233751.0        1357492550.0        1277547133.0         255317191.0        2245755202.0        1652682525.0        2865544364.0         721509566.0         209733568.0         592362218.0        2245755202.0        1652682525.0        2865544364.0         721509566.0         209733568.0         592362218.0