 # Version information for this restart file 
 # current date 2022-11-29 22:31:52.508
 # current working dir /scratch/work/courses/CHEM-GA-2671-2022fa/fm1484/comp-lab-class/Week12/Runs/Proton
 # Program compiled at                              Sat Dec 12 18:27:15 EST 2020
 # Program compiled on                                         cs001.nyu.cluster
 # Program compiled for                                                nyu-intel
 # Source code revision number                                       git:8c64c6e
 &GLOBAL
   PRINT_LEVEL  LOW
   PROJECT_NAME PROTON
   RUN_TYPE  MD
   WALLTIME 21600
 &END GLOBAL
 &MOTION
   &GEO_OPT
     OPTIMIZER  BFGS
     MAX_ITER  100
     MAX_DR     3.0000000000000001E-03
     &BFGS
     &END BFGS
   &END GEO_OPT
   &MD
     ENSEMBLE  NVT
     STEPS  2000
     TIMESTEP     4.9999999999999994E-01
     STEP_START_VAL  1938
     TIME_START_VAL     9.6899999999998636E+02
     ECONS_START_VAL    -1.1027452372049922E+03
     TEMPERATURE     3.0000000000000000E+02
     &THERMOSTAT
       TYPE  GLE
       REGION  MASSIVE
       &GLE
         NDIM  5
         A_SCALE     1.0000000000000000E+00
         A_LIST     1.8595758612559999E+02    2.7263853498399998E-01    1.1526100454610001E+01   -3.6414578262600003E+01 \
             2.3173375816020001E+02
         A_LIST    -2.7809524712060002E-01    8.5951591808710006E-05    7.2189048017650004E-01   -1.9844539343859999E-01 \
             4.2409257583420001E-01
         A_LIST    -1.4825808131210000E+01   -7.2189048017650004E-01    1.3590902121280000E+00    5.1498896280349999E+00 \
            -9.9949268450990001E+00
         A_LIST    -1.0372189126880000E+01    1.9844539343859999E-01   -5.1498896280349999E+00    2.6661910891169999E+01 \
             1.1507715495310000E+01
         A_LIST     2.1801346360420001E+02   -4.2409257583420001E-01    9.9949268450990001E+00   -1.1507715495310000E+01 \
             3.0958394565589998E+02
         &THERMOSTAT_ENERGY
               2.6473060739025398E-03
               4.5038830587699314E-04
              -6.0192740757168727E-03
               3.9509246190759105E-04
              -8.2178824483575951E-03
               3.6080750319860207E-03
               5.0397311755487322E-03
              -4.7505082539075309E-03
              -1.2175451430478604E-03
               3.8988514258083292E-03
               7.6198442145674833E-03
               1.0227985965333781E-03
              -4.9666170262578136E-04
              -4.0640120546306989E-03
               5.8452256861139572E-03
              -1.3863306121267221E-02
               1.3067723860524690E-02
              -2.0032757306431481E-03
               2.5367952036254504E-03
              -1.3035600749720030E-03
              -2.8618889854970689E-03
               1.8117489314995114E-03
              -4.4545700988695867E-03
              -5.8676899935768160E-03
               6.9341972436161286E-03
              -1.0169259047791649E-02
               2.1061959633486022E-03
               2.6746582630703228E-03
               4.6437697140043590E-03
               3.8072692393971209E-03
              -5.3977127555780956E-03
               8.0490108275250785E-03
               6.0356314910794745E-04
               1.9097817142534178E-03
              -5.0003386058049947E-03
               7.7985949199167615E-03
               6.4576543296019171E-03
              -4.2379186513615405E-03
               1.5603867731597506E-03
               1.4099790623407552E-03
               1.2073095843469522E-02
              -1.1753515550835645E-02
              -7.4972063679181666E-03
               9.3958509760248190E-03
               8.7721035446078365E-04
               3.9563280105309132E-03
               2.0984452108732212E-03
               5.1397405012862038E-03
               2.9176169583436779E-03
               4.1436254457093537E-03
              -4.5669862154247495E-03
               4.8179560533508837E-05
              -4.8053789955420792E-03
              -2.9748177971821942E-03
              -1.4190684882859121E-02
              -1.3308698033583023E-03
               1.9730416050048427E-03
              -3.0462291116974635E-03
               1.0081357488778224E-02
               2.3091574810909757E-03
              -6.0633352630678986E-03
               5.8571354713479080E-03
               1.0497376069165511E-02
              -7.0809249839775051E-03
               5.8458789999154062E-03
               4.0527109818409828E-03
              -1.2409400651666255E-02
               1.4065334889618308E-02
               1.0129353796668001E-02
              -2.2299400284488333E-02
               7.3287018112474806E-04
              -7.7193139983073094E-03
              -9.0012183761594526E-03
               1.3450365324369775E-03
              -2.7727325551068129E-03
              -5.2287043980549525E-03
               4.0586699249942201E-03
               7.2567488286619138E-03
               1.1243133636357113E-02
              -6.0367015115415099E-03
               1.0128729786275013E-02
              -6.8043759531520110E-04
              -2.3397936574841571E-03
               8.3236394597124732E-04
               4.9736304680926297E-04
               9.7613492648383358E-04
               3.9483760084390836E-03
               4.2993736321753412E-03
               7.9852358642715608E-03
               2.0784387864074168E-03
              -1.0057285270772443E-03
              -9.7285008032439186E-03
               1.7951532317749281E-03
               6.9466850950869611E-03
              -1.0101572271852753E-02
              -1.6911269005316738E-03
               2.8949021090176610E-04
               6.0833344176858327E-04
               6.2611557483080145E-03
               2.1081653491153663E-03
              -6.7509933701642615E-03
              -3.0250737895359306E-03
               4.6952933442346561E-03
              -7.4044466419909069E-03
               2.1066344380812652E-04
               7.5239072023078569E-03
               5.9731091141132443E-04
              -4.5467852900284364E-03
               7.2953543336873325E-03
              -2.5446567218600764E-04
               1.6100215109619523E-03
               4.1313727143339534E-04
               6.8714241953605664E-03
               1.3948920435166727E-02
               1.6622095717508595E-03
              -1.0275248931019931E-03
              -5.6615834428416405E-03
               1.4760956918156314E-03
              -8.0767845688381175E-05
               5.5631979856877586E-03
              -5.6573176621987258E-04
               6.5192562757720174E-03
              -6.1058887722741494E-03
              -3.4438902663228724E-03
              -3.5139299944180538E-03
              -7.9620664347463642E-03
               4.5297708916913889E-03
               2.4818221062145340E-03
              -9.2825126730595130E-04
               8.1758161088721082E-03
              -2.7401014943012011E-03
              -4.0321517064949202E-03
               4.0308977334228575E-03
              -1.2845808011099041E-03
              -1.0866848836038731E-03
              -2.0664991206809378E-03
              -3.2177457590261940E-03
               3.5076321755003730E-03
               1.4374356863763614E-02
              -3.8921574094865183E-03
               2.4563030653864679E-03
               5.8563397147107059E-03
              -2.1994103621472689E-03
               1.0843533210566405E-02
              -1.7131241391080457E-03
              -2.3579362386500348E-03
               5.5373564547209720E-03
               8.4903829677876793E-03
              -3.0094899255568098E-03
              -8.6421796650842791E-03
              -1.6085705123731947E-02
               9.7546174201599660E-03
               2.1693870664472132E-03
              -5.6186346268843749E-04
               9.8670090902960271E-03
               6.6871369178841825E-05
              -4.4535508283703338E-03
              -8.8433784872771247E-04
               1.9182642814838786E-03
              -2.6176915000805253E-03
              -4.1605967725181440E-03
              -1.8463704341258633E-03
              -3.9831052497543342E-03
               3.3490041897745464E-03
               9.4346370231222984E-03
               2.1653105070560671E-02
              -2.1207424895219517E-03
              -9.7348307448590025E-03
               8.5938696993477991E-04
               1.2269614452924658E-02
              -8.7335303864624365E-03
               1.9591629384613338E-04
              -1.4163880388894951E-03
              -6.1764812658750084E-04
              -1.2004283208532564E-03
               8.8621261142895012E-03
              -5.9413760939983776E-03
               5.2152003429057981E-03
              -5.3086504958416527E-04
               1.2719926200308594E-02
              -2.3008028666851037E-03
              -7.3524376473133772E-03
               6.3673698546935211E-03
              -1.0956830063837530E-02
               1.4281303697898798E-02
               1.4795705217723147E-03
              -8.3309141362471386E-03
               4.0498948010635602E-03
              -7.1478744365386605E-03
               1.6638505212669989E-03
               2.3264208192779355E-03
              -6.8577738681751757E-05
               9.1386808325927683E-04
               9.4103120731001532E-03
              -4.8175437675056047E-03
              -3.1170578007276690E-03
              -7.8458642734967610E-03
               4.8463237368671051E-03
              -2.0913088082251344E-03
               1.9915797991625706E-03
              -6.9044501206143869E-03
               9.5963947548458692E-03
               1.4035506960458166E-02
              -6.1412403751658698E-03
              -9.7851005403175404E-03
               1.3614698301696992E-02
              -8.5184119448957606E-03
               2.2880273557779694E-03
               1.4511569816299883E-03
              -3.0498807270885283E-03
               3.8843311987188591E-03
              -1.3956957067786064E-02
               1.0099320929407780E-02
               8.0520427795547373E-03
               4.7944804285569257E-05
               3.5009640798830909E-04
              -1.4059266027238046E-02
               7.9178581396552421E-03
               3.3631229770240681E-03
              -1.3570507525216734E-02
              -3.3712339009931203E-03
              -3.6969112614563073E-04
               5.5755220678759213E-03
               1.4154411659289294E-02
               1.2647219303677526E-03
               6.5823890882765078E-03
              -2.4512952779993302E-03
              -7.5215495195589063E-04
               1.0360997297658770E-04
              -3.7354746290835634E-03
              -1.6939935353113564E-03
               3.0061313789651735E-03
               1.9933866442386237E-02
              -9.7815310367031262E-03
               5.9402181472647088E-03
               2.2084952831099122E-03
              -1.6825698544168607E-03
              -2.9137729901620494E-03
               5.6310944787654931E-03
               6.3079589828363546E-03
               5.3396981787146181E-03
              -6.9577119643333520E-03
              -9.2313445496502316E-04
              -2.9480041844555833E-03
               9.8808247568751861E-04
               4.6652579655013897E-03
               4.9178181299899771E-03
              -1.5652600942712897E-03
              -6.1749674723523803E-03
              -4.3564975832357834E-03
              -1.6487683507539457E-03
              -2.9972510246900562E-03
              -2.6445393822297986E-03
               2.4785119169573916E-03
               1.8119516654104763E-03
              -5.8105333279118436E-04
               1.4828638830758660E-02
              -5.8462542353412469E-03
               1.6841195012786747E-02
              -3.5811151237069530E-02
               2.2262348424826925E-02
               6.5151396984486874E-03
               3.8358595497629583E-03
              -2.8248557414375097E-03
               4.2752164746238525E-03
              -9.2029350374873697E-03
               1.6400708812295351E-03
              -1.1170218117721634E-02
               1.1202498787659868E-02
               4.6035254663369576E-03
               4.0269645222424310E-04
              -1.8613276004069495E-03
              -6.8549011187372575E-04
               1.0058719506056009E-02
              -2.0483775224948935E-04
               9.6235854288510246E-03
              -2.4659798540324612E-02
               1.0914668377469986E-02
              -3.6053757477128101E-03
               4.4155791340354071E-03
              -5.1704668080243413E-03
              -1.4600828707557746E-04
              -1.0026776441516524E-02
              -4.4040690131817708E-03
               1.3550104756344867E-03
              -3.9812723192434157E-03
               9.6015829612812326E-03
              -7.7852731416231322E-03
              -6.8779219769189714E-03
              -1.5746238785517049E-03
              -2.6252626708461093E-03
               8.7022350394254152E-03
              -3.6180795928634941E-03
              -2.3068826250388589E-03
              -1.5942519849703369E-03
               8.9333632724065016E-03
              -7.9338842606732629E-03
               5.5227364361290811E-03
              -2.3437010676884171E-03
              -4.3428683061683569E-03
              -1.1409844530926878E-03
               1.4012275250488188E-03
               3.3321542057264974E-03
               2.3392413880051494E-03
               7.3309290956576050E-03
              -8.1714074174048437E-03
              -8.3869177415281694E-03
               1.8351139051331485E-03
              -4.4806110968724570E-04
               1.8183561468122552E-02
              -7.9466707493325781E-03
              -4.5353435436223475E-03
               2.4722535514328662E-03
               7.7179094256884465E-03
              -3.8078366225804761E-03
              -1.4121132610001197E-03
               4.8593680968433284E-04
               7.3020320674953209E-03
               2.8350205577951405E-03
              -1.0357510697719155E-02
               1.3978526071934543E-02
              -9.1439381453486211E-03
              -1.8889185461313340E-03
               5.4974747851131330E-03
               5.5777640226805400E-04
               5.8654032380309759E-03
              -1.4777268523175123E-03
               1.2277215370886583E-02
               2.1412515220288939E-03
              -7.8504857272151864E-03
               6.7277257906449544E-03
              -1.1874497509247283E-02
               2.9632923654648704E-03
               2.5212566097133644E-03
               8.8464860208100260E-04
              -1.6100026183363707E-03
               8.2893621776882372E-03
              -9.5863847076076876E-03
              -3.1344684362549762E-03
               9.5159056783004452E-03
              -1.0033903254439513E-02
               2.4840435107570742E-03
               2.8295882578506298E-03
              -7.3725811769747851E-03
               1.4039580605529594E-03
              -2.8615703482975773E-03
              -2.4280317149555320E-04
               1.5485128448054510E-03
               3.1703688756751641E-03
               4.5888581031307179E-03
              -1.4834739035291156E-03
               4.2526785510258944E-03
              -1.1220501439285106E-02
              -4.3318811354178099E-03
              -1.1417599467315161E-02
               1.0378491983993873E-02
               2.0978748689229085E-04
              -4.4201402253037283E-03
              -9.9107658107365701E-03
               1.5759877033182421E-02
               7.0799984672938676E-04
              -3.9376155454306644E-03
              -6.4025761510030799E-03
              -1.4576070596782642E-03
              -1.0543837708105816E-02
               1.7406336468778684E-02
              -7.8041282426396456E-04
               1.0711097736666631E-03
               4.7058264485686880E-03
              -1.5400178485798753E-03
               3.6379327562033790E-03
              -1.5969463600871349E-03
               6.6507199961482022E-04
               4.0285121387056292E-03
               9.6008465401565104E-04
               9.1959448502076512E-04
               6.0729928100644991E-03
              -1.4227477455377717E-02
               1.5312759886497588E-03
               1.3010723760799410E-02
               3.2644049125646933E-03
               5.4939823447454229E-03
               2.5425349210325507E-02
               2.6809266148121666E-02
              -9.7844319808464766E-03
               3.3426854904523105E-03
               1.4752541058517327E-02
               4.0868480001912590E-03
               1.8275213800620804E-02
               1.7659596717355883E-03
              -9.0841265288754726E-03
               5.7731282685755808E-03
               2.4904860910228838E-03
              -7.1459836056010527E-03
               1.4650812846307603E-02
              -4.6108469599284076E-03
              -7.4456074136328263E-04
              -4.1227289864010858E-03
               7.0866236970573157E-03
              -5.3679388504966593E-03
              -5.0541737720342745E-03
               5.9521091885350102E-03
              -4.5213427242180946E-03
              -7.4186754663396713E-03
               3.0278952137063686E-03
              -9.0677562257441193E-03
               1.2777898503089603E-03
              -3.1919157850869755E-03
               3.7381326719261045E-04
              -1.0534221377826540E-04
              -2.5364090125882168E-03
               1.3800220657806750E-03
               2.2162862122567756E-03
               1.5634978801381404E-03
              -1.1154133534086102E-02
               9.7787365543033876E-03
               2.0989567107614531E-03
              -3.8471939039780726E-03
               1.7701091084130608E-03
              -9.9324335502761602E-04
               2.3126316162514482E-03
              -2.4896929617817514E-03
              -3.4374495099550851E-03
              -2.8718793348030047E-03
               1.3017545676155986E-02
              -5.3859703172344058E-03
              -3.3469864156279458E-03
              -9.6941188397720425E-04
               2.1096911765133720E-03
              -2.7995473349416247E-03
              -1.2627824348948335E-02
              -6.5436605288692606E-03
              -9.9265538528133888E-03
               1.4304520291541166E-02
               8.5397215524000217E-03
               3.1776165839043804E-04
              -1.8968828544053415E-03
              -3.6336782924472227E-03
               3.8564242191984808E-03
               4.0510772370645981E-03
              -6.4272466156299049E-03
               2.1346239774612270E-03
               1.3566883290233739E-03
               2.6449837850158705E-03
              -6.1532917337611790E-07
               4.5264013740794395E-03
               2.4622898967788030E-03
               1.0128354911197818E-02
               2.4192663425790717E-03
              -8.8261097198775642E-03
              -9.9217028303918396E-03
              -9.4799877213828689E-03
               6.3001165309330550E-03
              -2.6273739333756795E-04
               1.0633049820041828E-03
              -8.9862901129137869E-03
              -1.9042341127874928E-03
               9.4148359115689840E-04
              -3.5413177812163529E-03
              -4.5713007471793413E-04
               1.1113076477989228E-03
               1.4375225473733188E-02
              -3.7291986248985747E-03
               1.0017463610828996E-02
               7.3597433664004995E-03
               2.4069516474205378E-03
              -9.5880090188021402E-03
               2.4913045471801972E-03
               4.6802547943809438E-03
              -8.6810627118598053E-03
              -2.4224610671176893E-03
              -5.5634552855976680E-03
               2.5701112846956884E-03
              -3.1705249056047263E-04
               1.5088115903659741E-03
               1.0172233314032778E-02
               3.7316890798974626E-03
               3.6625103943856703E-03
              -1.0814502325707466E-02
              -6.9182537110583765E-04
              -2.1882540697926085E-03
              -1.9477300324851647E-03
               1.1444017623540184E-02
               9.5127409388385022E-03
               3.2780178227638014E-03
              -3.2852998772439339E-03
               9.6992135374883905E-03
              -7.9609987341957185E-03
              -5.8919084045827930E-03
               4.4336920445464635E-04
               6.1995672651898931E-03
               3.0046386864732277E-03
              -1.8917390575387372E-03
               3.4824184741360448E-03
              -1.0954765541398501E-02
              -1.5573783777748211E-03
               1.4374698613834214E-02
              -8.7309550511703374E-03
               5.0411478065897110E-03
               5.2219421173799966E-03
               3.4963047831473000E-03
              -3.8905381635503280E-03
              -9.0108569889364408E-03
               1.1541228774188627E-02
               1.6422737326315319E-03
              -8.4494278680657814E-03
              -3.3938903788808855E-03
              -2.5838798398800261E-03
               8.3666937627870121E-03
              -7.5341224944986611E-04
              -3.9922420001233605E-03
               2.7164854254626202E-03
              -8.5121383297073056E-03
              -9.6062032439348799E-03
               1.5742705450098763E-02
              -1.8293027696185769E-02
              -2.2168841240348264E-03
               1.5058059006090570E-03
              -4.5730959442412839E-04
               1.7362083118437933E-02
              -1.3728725983627992E-02
              -5.4091528400288065E-03
               1.1346833553504944E-02
              -1.5829595058578950E-03
               1.6034321761349579E-03
               8.0676437516821846E-03
              -9.0122087743765896E-03
              -2.4366692450647903E-03
               5.2850349538819167E-04
               7.4572470643507350E-03
               5.9216369568430354E-03
               1.2134532109935930E-02
              -1.5663212117883785E-02
              -9.9380061262792779E-03
               6.0490173743871925E-03
               5.1687889795044338E-03
               3.5214038035575649E-03
              -2.0560076606116980E-02
               3.7842524589234115E-03
               7.8395057078021746E-03
              -8.5467974138023085E-03
               8.0694271439130574E-03
               5.2474074560683141E-03
               7.4412149230497569E-04
               4.1770956337986529E-03
              -8.6932580352377525E-03
               4.5530483597806927E-03
              -8.3465268329973577E-04
               1.0033287591155160E-02
               1.1378965932077774E-02
              -8.4987126649231099E-03
              -1.4613762115415273E-02
              -4.5096489294136691E-03
               2.6575815810440630E-04
              -2.8241008927849497E-03
              -5.2433985164479875E-03
              -1.6060414724078820E-03
               1.4028722733184770E-02
               7.8090335874362957E-03
              -1.9243702278688938E-03
               1.0239858124609917E-02
               7.1338534582937405E-03
               9.1935033190834747E-04
              -5.2012366431181502E-04
              -6.8191551674612653E-04
              -6.1491234741196327E-03
               1.3253857933348205E-03
              -8.8955723885209329E-04
              -3.4854875725834084E-03
              -3.3137834862350100E-03
              -5.3558253125708839E-03
              -5.3537030884973896E-03
              -3.1970778393030476E-03
              -1.4121220536572748E-02
               6.6956613496966990E-03
               1.3270739479559139E-02
               1.2860474382729263E-02
              -1.5178956378322369E-03
              -6.6927245925767652E-03
         &END THERMOSTAT_ENERGY
         &RNG_INIT
Wiener process for Thermostat # 1        1 F T T   1.3168796815230839E+00         253091221.0        1879348804.0        1941419816.0        1781949665.0        2664059217.0        3222965444.0             12345.0             12345.0             12345.0             12345.0             12345.0             12345.0             12345.0             12345.0             12345.0             12345.0             12345.0             12345.0
Wiener process for Thermostat # 2        1 F T T   1.0836082229034851E+00        2065562364.0        2791780499.0        3376256025.0        2272437090.0          28556202.0        1093648535.0        3692455944.0        1366884236.0        2968912127.0         335948734.0        4161675175.0         475798818.0        3692455944.0        1366884236.0        2968912127.0         335948734.0        4161675175.0         475798818.0
Wiener process for Thermostat # 3        1 F T T  -6.1789393667745862E-01        2532064638.0         370819499.0        1517330627.0        2715415613.0        2825307082.0         500940699.0        1015873554.0        1310354410.0        2249465273.0         994084013.0        2912484720.0        3876682925.0        1015873554.0        1310354410.0        2249465273.0         994084013.0        2912484720.0        3876682925.0
Wiener process for Thermostat # 4        1 F T T  -1.2294886384093420E+00        3336183887.0        2872232771.0        2236750950.0        1269186191.0        2024423191.0        1697159479.0        2338701263.0        1119171942.0        2570676563.0         317077452.0        3194180850.0         618832124.0        2338701263.0        1119171942.0        2570676563.0         317077452.0        3194180850.0         618832124.0
Wiener process for Thermostat # 5        1 F T T  -5.3812445590684677E-01          83417531.0        1554909841.0          10949448.0        1777786994.0         774496762.0        3437435958.0        1597262096.0        3906379055.0        3312112953.0        1016013135.0        4099474108.0         275305423.0        1597262096.0        3906379055.0        3312112953.0        1016013135.0        4099474108.0         275305423.0
Wiener process for Thermostat # 6        1 F T T  -5.2919841187462680E-01        1885480420.0        2096556473.0        1753103654.0         216363748.0         317407656.0         600942169.0          97147054.0        3131372450.0         829345164.0        3691032523.0        3006063034.0        4259826321.0          97147054.0        3131372450.0         829345164.0        3691032523.0        3006063034.0        4259826321.0
Wiener process for Thermostat # 7        1 F T T   3.6080576363662714E-01        2545801942.0        3621807660.0        2775617272.0        2988871404.0        1088375287.0        3337485535.0         796079799.0        2105258207.0         955365076.0        2923159030.0        4116632677.0        3067683584.0         796079799.0        2105258207.0         955365076.0        2923159030.0        4116632677.0        3067683584.0
Wiener process for Thermostat # 8        1 F T T  -4.6172178108712220E-01        1591112872.0        4168599795.0         876023510.0        2218546806.0        2137197718.0        1187030772.0        3281794178.0        2616230133.0        1457051261.0        2762791137.0        2480527362.0        2282316169.0        3281794178.0        2616230133.0        1457051261.0        2762791137.0        2480527362.0        2282316169.0
Wiener process for Thermostat # 9        1 F T T   1.1031360122833411E+00        4136085209.0        1896820948.0        1239023544.0        2102586543.0        2487320919.0        1484742537.0        3777646647.0        1837464056.0        4204654757.0         664239048.0        4190510072.0        2959195122.0        3777646647.0        1837464056.0        4204654757.0         664239048.0        4190510072.0        2959195122.0
Wiener process for Thermostat # 10       1 F T T   6.3955414543737688E-01        3959073505.0        4146290589.0        3971256072.0        3048905764.0          81718252.0        1945148291.0        4215590817.0        3862461878.0        1087200967.0        1544910132.0         936383720.0        1611370123.0        4215590817.0        3862461878.0        1087200967.0        1544910132.0         936383720.0        1611370123.0
Wiener process for Thermostat # 11       1 F T T  -1.5684621275531752E-01        1034733295.0        2428978719.0        3632761299.0        2576966700.0         444152844.0        2369664815.0        1683636369.0         362165168.0         814316280.0         869382050.0         980203903.0        2062101717.0        1683636369.0         362165168.0         814316280.0         869382050.0         980203903.0        2062101717.0
Wiener process for Thermostat # 12       1 F T T  -8.0744726982260137E-02        4101011231.0        2570939400.0        4228792777.0        3466230943.0        1078674140.0         382082594.0         272317999.0         166758548.0         310112982.0         201045826.0        1680231254.0         118290799.0         272317999.0         166758548.0         310112982.0         201045826.0        1680231254.0         118290799.0
Wiener process for Thermostat # 13       1 F T T  -6.7149659210642743E-01        4266754015.0        1536301502.0        3276490451.0        2963200124.0        1006352126.0        3307904378.0        2245755202.0        1652682525.0        2865544364.0         721509566.0         209733568.0         592362218.0        2245755202.0        1652682525.0        2865544364.0         721509566.0         209733568.0         592362218.0