 # Version information for this restart file 
 # current date 2022-11-29 22:31:37.989
 # current working dir /scratch/work/courses/CHEM-GA-2671-2022fa/fm1484/comp-lab-class/Week12/Runs/Proton
 # Program compiled at                              Sat Dec 12 18:27:15 EST 2020
 # Program compiled on                                         cs001.nyu.cluster
 # Program compiled for                                                nyu-intel
 # Source code revision number                                       git:8c64c6e
 &GLOBAL
   PRINT_LEVEL  LOW
   PROJECT_NAME PROTON
   RUN_TYPE  MD
   WALLTIME 21600
 &END GLOBAL
 &MOTION
   &GEO_OPT
     OPTIMIZER  BFGS
     MAX_ITER  100
     MAX_DR     3.0000000000000001E-03
     &BFGS
     &END BFGS
   &END GEO_OPT
   &MD
     ENSEMBLE  NVT
     STEPS  2000
     TIMESTEP     4.9999999999999994E-01
     STEP_START_VAL  1936
     TIME_START_VAL     9.6799999999998647E+02
     ECONS_START_VAL    -1.1027452372049922E+03
     TEMPERATURE     3.0000000000000000E+02
     &THERMOSTAT
       TYPE  GLE
       REGION  MASSIVE
       &GLE
         NDIM  5
         A_SCALE     1.0000000000000000E+00
         A_LIST     1.8595758612559999E+02    2.7263853498399998E-01    1.1526100454610001E+01   -3.6414578262600003E+01 \
             2.3173375816020001E+02
         A_LIST    -2.7809524712060002E-01    8.5951591808710006E-05    7.2189048017650004E-01   -1.9844539343859999E-01 \
             4.2409257583420001E-01
         A_LIST    -1.4825808131210000E+01   -7.2189048017650004E-01    1.3590902121280000E+00    5.1498896280349999E+00 \
            -9.9949268450990001E+00
         A_LIST    -1.0372189126880000E+01    1.9844539343859999E-01   -5.1498896280349999E+00    2.6661910891169999E+01 \
             1.1507715495310000E+01
         A_LIST     2.1801346360420001E+02   -4.2409257583420001E-01    9.9949268450990001E+00   -1.1507715495310000E+01 \
             3.0958394565589998E+02
         &THERMOSTAT_ENERGY
               3.2947425723498505E-03
               4.2697851455067545E-04
              -6.2742582930481513E-03
              -3.9282488607641727E-04
              -8.3528749818429400E-03
               2.9648016104298599E-03
               5.8803392434656088E-03
              -4.3974543288497611E-03
              -1.2281687460588063E-03
               3.5701973998999159E-03
               7.6050298863088632E-03
               8.5145835718163847E-04
              -3.7095302836453927E-04
              -4.0628628030110331E-03
               5.8070353541674145E-03
              -1.4227436729529593E-02
               1.3222625791536361E-02
              -1.9848941952345391E-03
               2.4441617152799588E-03
              -1.7434434484681401E-03
              -2.7576490260740306E-03
               1.9930239626705457E-03
              -4.0858990024825563E-03
              -5.5067344982299184E-03
               6.9019183977455352E-03
              -1.0476912177897531E-02
               2.4612027502322253E-03
               2.7275120352020354E-03
               4.6002032111981863E-03
               3.3021922005659985E-03
              -4.6177555243913830E-03
               7.4974830888804899E-03
               2.9218273831815823E-04
               1.9589463753601419E-03
              -5.0594429714291749E-03
               7.6728133206805061E-03
               6.3917175312423044E-03
              -3.8399893249279342E-03
               1.6628296533816155E-03
               1.1542607320189739E-03
               1.1790118581517002E-02
              -1.1687720048110459E-02
              -8.7779794359334334E-03
               9.1616095099092965E-03
               5.0484419528173052E-04
               3.0689287213744262E-03
               2.0823743745046800E-03
               5.1843510091613776E-03
               2.7990308402875974E-03
               3.0747931129599493E-03
              -4.5042299045121399E-03
               7.9841793545157492E-05
              -4.7902294824462236E-03
              -2.9208630330160843E-03
              -1.3250527942941499E-02
              -1.1507677340410359E-03
               2.1817484191108496E-03
              -1.7844072557467693E-03
               1.0196161838494852E-02
               2.4434048693812208E-03
              -5.9331494628490624E-03
               4.2701296490171891E-03
               9.9706544045220606E-03
              -7.1553927473964546E-03
               4.3336506282867938E-03
               3.3816671370383053E-03
              -1.2429207565358411E-02
               1.4276065925228064E-02
               1.0122389760504624E-02
              -2.2315284563969955E-02
               1.6426707273170457E-03
              -7.0425926735644363E-03
              -8.9135287775051857E-03
               1.3632847337255746E-03
              -2.8603719647945034E-03
              -5.7138191573066393E-03
               4.1993853819235769E-03
               6.7000958183156319E-03
               1.1333191416318618E-02
              -6.0450064930985311E-03
               9.8589277994127686E-03
              -6.8026764054553526E-04
              -2.3643494765893990E-03
               1.8213455091739864E-03
               6.8646548363621954E-04
               1.2844659250896976E-03
               4.1279392112220196E-03
               4.3193557608930547E-03
               7.9647779546302162E-03
               1.7911334057536374E-03
              -1.0465329549311682E-03
              -9.7443587697219388E-03
               2.1364830501844679E-03
               7.3120103069700794E-03
              -1.0218424566685244E-02
              -1.2638846862981659E-03
              -1.1776800158561356E-04
               2.6274258934530384E-04
               6.1252203070393208E-03
               1.2079766997653615E-03
              -6.8290410623062896E-03
              -2.8221768666634979E-03
               4.8718189360883934E-03
              -6.9271364623584974E-03
              -1.5369511710466551E-04
               9.4740716544200985E-03
               2.1209441473171954E-03
              -4.4440252079339382E-03
               7.3584323984225031E-03
              -1.6531614286397110E-04
               1.6486690002161740E-03
              -1.7793766252783752E-04
               7.2344944766137981E-03
               1.3887242874560810E-02
               1.6943890254428112E-03
              -6.2811576868246647E-04
              -5.6431137784816550E-03
               1.6580643662204601E-03
              -1.5990543010102756E-04
               5.0692466388435123E-03
              -6.2542943016173690E-04
               6.0546594728693040E-03
              -5.8544601575516867E-03
              -2.8430611558182464E-03
              -4.1820392739401425E-03
              -8.6024724258181012E-03
               4.9601830647501089E-03
               2.5799175186780321E-03
              -1.0075826127016884E-03
               8.0145486456709939E-03
              -2.7284133513097437E-03
              -4.0598093373466568E-03
               4.2785680746222406E-03
              -1.6544052013914953E-03
              -1.0586797720316943E-03
              -1.3682718166521026E-03
              -3.7955819417570943E-03
               3.4178678552887918E-03
               1.4405494269031446E-02
              -3.7832418913718224E-03
               2.4170360844841688E-03
               6.2445592505931471E-03
              -2.2144311174229635E-03
               1.0571767217241226E-02
              -1.7707802266863921E-03
              -2.5217405829577300E-03
               5.0185090875037690E-03
               8.3611925313427995E-03
              -3.0231617923011942E-03
              -8.6494845122627555E-03
              -1.5904149182374917E-02
               1.0546955033688934E-02
               8.8228031817003246E-04
              -5.7006621821880884E-04
               1.0358180042297879E-02
               3.0017781469560606E-04
              -4.7745152332431791E-03
              -7.0362914953808753E-04
               2.2104283477361120E-03
              -2.5354704386383251E-03
              -4.1716153998456792E-03
              -1.6993986229079416E-03
              -3.9990125303046454E-03
               3.3289964735640516E-03
               1.0125538302988643E-02
               2.1713696645166054E-02
              -2.4678660032359974E-03
              -9.6656702566218153E-03
               8.5824685340917255E-04
               1.2003989646790112E-02
              -8.2652433780468614E-03
              -3.8473780715749873E-04
              -1.4583921615638905E-03
              -8.3742347793603722E-04
              -1.1447279355551419E-03
               8.8404152848288939E-03
              -6.9988975719926178E-03
               5.0875556380032289E-03
              -9.8703482272389327E-04
               1.2517201834835994E-02
              -2.3040114989162173E-03
              -7.0777473183771472E-03
               6.4370589560786076E-03
              -1.0920632550348140E-02
               1.4571570323157538E-02
               1.4353781183254807E-03
              -8.9950693335563419E-03
               4.1416358601310743E-03
              -7.0150481717376452E-03
               1.5867639879664152E-03
               2.1276175736590795E-03
              -1.5901634686295399E-04
               4.7271181996967908E-04
               8.8025047703926326E-03
              -4.6800638575740516E-03
              -2.8175033112253973E-03
              -7.8445702515970960E-03
               5.7873803270225357E-03
              -2.5879117253497863E-03
               2.0579002804516524E-03
              -8.1101466525514386E-03
               9.5518896216511551E-03
               1.4135685738098116E-02
              -5.8385277630192038E-03
              -1.0361796635983240E-02
               1.3476375987661177E-02
              -8.5277076190352023E-03
               2.8722248486789930E-03
               1.4700264007579910E-03
              -2.5542084974237139E-03
               3.9171689475755557E-03
              -1.5237781048075435E-02
               1.0106035738930373E-02
               8.0819466936084480E-03
               5.0187768870693780E-04
               2.0621148908700590E-04
              -1.3364709232956417E-02
               8.0481984258823826E-03
               3.3180799496127737E-03
              -1.3629931791715852E-02
              -3.2327972236392889E-03
              -3.8188684042874088E-04
               5.3227172500709807E-03
               1.3652417027177132E-02
               1.2054308029755237E-03
               6.8482845534178815E-03
              -2.6317767400857810E-03
              -9.5535431378506255E-04
              -6.4014007333575303E-04
              -4.1559848572448651E-03
              -1.5932716743060561E-03
               3.0112527977424783E-03
               1.9764049000308381E-02
              -9.4645556519188136E-03
               5.3714983707055667E-03
               2.4292286310299721E-03
              -2.0129201457144801E-03
              -2.9619312502514547E-03
               5.4969360732715781E-03
               6.5226357833951471E-03
               5.4306085520176269E-03
              -6.4798159065045128E-03
              -7.3839172032051452E-04
              -1.5389126712001566E-03
               9.6922642663837253E-04
               4.6915529639157162E-03
               4.3103716158992018E-03
              -2.2553868768903510E-03
              -5.9625911533124978E-03
              -4.5272077248671239E-03
              -2.0926689984562910E-03
              -3.1088676811635530E-03
              -2.1769691452391301E-03
               1.9982594378437414E-03
               1.6575573006051456E-03
              -6.9280099472736052E-04
               1.5370991562294966E-02
              -5.9577891691747348E-03
               1.6906441888114625E-02
              -3.5779466317532489E-02
               2.0785254326925809E-02
               6.7820188389819585E-03
               3.7581840472063811E-03
              -2.0490776317709306E-03
               4.6551025554771022E-03
              -8.8634807274402989E-03
               1.5103639552762037E-03
              -1.1181570181669796E-02
               1.1119442453343229E-02
               3.9386647092602405E-03
               4.9419722145893521E-04
              -2.6476757143513358E-03
               4.2722859455159826E-04
               1.1477761009307828E-02
              -2.5806245215291964E-04
               8.9909027711769455E-03
              -2.4672351438927612E-02
               1.0447165269042982E-02
              -4.2335392046807122E-03
               4.9577078114076099E-03
              -5.2351325555919856E-03
               1.6908494590622453E-04
              -1.1437472133296924E-02
              -3.9909802684910591E-03
               1.3848431031796603E-03
              -3.8477315361308798E-03
               9.9832190544505636E-03
              -6.8249142364192692E-03
              -6.5216900870844734E-03
              -1.0786564092168857E-03
              -1.8927728814844751E-03
               8.7523468899056815E-03
              -3.2519042455492206E-03
              -2.4572424261031321E-03
              -1.4905910919195905E-03
               8.9524569206862713E-03
              -8.1906500194988061E-03
               6.4964763843918267E-03
              -2.1929881685310158E-03
              -3.3015652654003877E-03
              -1.2278089925054252E-03
               1.6107590232293757E-03
               3.3516973257497677E-03
               1.5190217594371041E-03
               7.3569789223718266E-03
              -7.5485070050994186E-03
              -8.3432789761072913E-03
               1.8118167430959905E-03
              -4.2734763540065707E-04
               1.7989801644251121E-02
              -8.0916476760168263E-03
              -2.7747030290116732E-03
               2.4921153419492073E-03
               7.7940817415038085E-03
              -3.7848452322372904E-03
              -1.4588539245087887E-03
               4.9188682855321754E-04
               6.9940082872381954E-03
               3.0743096887593693E-03
              -1.0277617012960283E-02
               1.3782681422904532E-02
              -7.7674885737905033E-03
              -1.8834808913178775E-03
               5.4854841982385945E-03
               4.5940847820583004E-04
               5.8428874007117292E-03
              -7.0206480534613523E-04
               1.2443575277980443E-02
               2.1732615659788186E-03
              -7.9592342067783609E-03
               6.6993461803414363E-03
              -1.1527349835005921E-02
               2.9245549146645249E-03
               2.5846483680914932E-03
               9.5185458909047044E-04
              -1.6488770181260564E-03
               8.2048400053936505E-03
              -9.5812186581025263E-03
              -3.2723546179359050E-03
               9.3881035719225441E-03
              -9.3161426162978317E-03
               2.5270587237706315E-03
               2.8555918714100290E-03
              -6.4791986849200367E-03
               4.8754377025164784E-04
              -3.0888421698510382E-03
              -4.1132101523051745E-04
               1.4195031632488731E-03
               3.4062578432774329E-03
               4.6753254634048190E-03
              -8.8938319390566246E-04
               4.5153433524553364E-03
              -1.0712315589090577E-02
              -4.5280084722074234E-03
              -1.1676104134974621E-02
               1.1112195754904320E-02
               1.6349267131327781E-04
              -3.8520895516872887E-03
              -9.8920931704057097E-03
               1.5861724353945929E-02
               7.2597852317490710E-04
              -3.6681613313038122E-03
              -6.7573860351595070E-03
              -2.9931827680357913E-03
              -9.9831633537659486E-03
               1.7733764375881169E-02
              -3.3352458497869252E-04
               9.3925943727682360E-04
               4.7859387456418339E-03
              -1.6088544945949141E-03
               3.2436047980455114E-03
              -2.0001252605150962E-03
               7.8431343441283190E-04
               4.3697487883312359E-03
               3.7818598310022087E-05
               8.5139169224667508E-04
               6.0063191784271606E-03
              -1.4109216853017378E-02
               1.4760230621436326E-03
               1.3013069458429801E-02
               1.8313077025136656E-03
               5.0473716106028653E-03
               2.5402711692260976E-02
               2.6531188249936447E-02
              -9.6449232816212174E-03
               3.6015062456856459E-03
               1.4424015801783171E-02
               4.4336171945963277E-03
               1.8090902818938919E-02
               1.6560836639180239E-03
              -9.0719218651071094E-03
               5.6392592689628570E-03
               1.4836308691327990E-03
              -7.1754951708206593E-03
               1.4490351958969380E-02
              -4.7817986675953257E-03
              -5.2218668456357055E-04
              -3.9260032245420368E-03
               4.9964518556043988E-03
              -5.3795577591621837E-03
              -4.9869433365989152E-03
               5.2629851910229062E-03
              -4.2317946104057378E-03
              -7.0681877053263877E-03
               2.3536977819934878E-03
              -8.4146837722965315E-03
               1.2866894506041854E-03
              -3.1694459757077658E-03
               5.5547829956447683E-04
              -1.4935160840640207E-04
              -2.5915609518115902E-03
               1.4116185940532731E-03
               2.2066151373287724E-03
               1.8632620627319762E-03
              -1.3022996989289241E-02
               9.9526651571193916E-03
               2.6896731935454250E-03
              -3.6929709635798607E-03
               1.7120888228857082E-03
              -1.0705901432925191E-03
               2.3260970290627098E-03
              -2.5962632638548734E-03
              -3.5818490276885435E-03
              -5.2325802579767933E-03
               1.3439657561739636E-02
              -4.7485289915073382E-03
              -2.1529260517601685E-03
              -1.2031065366588461E-03
               1.8816356168104150E-03
              -2.5847216924113794E-03
              -1.2572065409220536E-02
              -5.0155876725702080E-03
              -1.0470740495616004E-02
               1.4303983611230480E-02
               8.3331357639752791E-03
              -3.6669847970687128E-05
              -1.8100243314530863E-03
              -4.1411810918928257E-03
               3.4635105627642514E-03
               3.9223426960173840E-03
              -6.5719182535321115E-03
               2.1267390681292205E-03
               2.9162785214850236E-03
               2.5016971398324579E-03
              -9.0141498920275011E-05
               4.4285787169005639E-03
               4.8289474152012095E-03
               1.0116152361604671E-02
               2.1737678444530544E-03
              -6.8319510112000194E-03
              -1.0210980933841504E-02
              -9.5658278020490425E-03
               6.3317101881056317E-03
              -1.9372027625292660E-04
               1.1049951879445860E-03
              -8.9738893221487214E-03
              -2.0010808269175602E-03
               4.3707043576851048E-04
              -3.4406659837275702E-03
              -7.9900470140032082E-04
               1.2273578364337988E-03
               1.4386999729399245E-02
              -3.7646193902235807E-03
               1.0828372186926404E-02
               7.4210766174073782E-03
               2.5336683995076876E-03
              -9.8583567235232764E-03
               2.1628751176824296E-03
               4.7589943970837104E-03
              -8.3708595247179250E-03
              -2.2581967175005998E-03
              -6.0567346877865658E-03
               2.5619947719503142E-03
               1.0604067343223246E-04
               1.8951897626599528E-03
               1.0191800149960144E-02
               3.5760341657102008E-03
               3.9337838326725392E-03
              -1.0814557839936543E-02
              -1.2135219576298213E-03
              -1.9607218842650643E-03
              -1.9825330193866601E-03
               1.1376712735555346E-02
               9.3551254555700007E-03
               3.4409225343889536E-03
              -3.9153988881817257E-03
               9.5776623287687143E-03
              -8.3857579036533663E-03
              -5.4165542241037638E-03
               1.1618547181377076E-04
               6.2341787995715591E-03
               3.1797942563827836E-03
              -2.0535704924938983E-03
               4.2903419886127347E-03
              -1.1136507226302409E-02
              -1.1117330393956256E-03
               1.4208474999822215E-02
              -9.6389515371916833E-03
               5.2808607696702009E-03
               5.3997424184268929E-03
               3.4480969761866262E-03
              -4.6287180059426756E-03
              -8.9795458224928883E-03
               1.1599554848793945E-02
               2.1266724845394945E-03
              -8.1446803095824010E-03
              -2.2403725591547191E-03
              -2.3722185141820500E-03
               7.8792298563328464E-03
               1.1734763851270584E-03
              -4.0380551588767967E-03
               2.4771756988226342E-03
              -7.9764297814121556E-03
              -8.3631233883364516E-03
               1.5909580362395478E-02
              -1.7762034544929105E-02
              -1.9884199201578136E-03
               1.4190548079424084E-03
              -4.0745593553141951E-04
               1.7415079639411569E-02
              -1.3720642921950960E-02
              -5.4355310340521521E-03
               1.1312191634505817E-02
              -1.5064920254050638E-03
               1.7140684878234997E-03
               7.5229374190542960E-03
              -8.9329228153816539E-03
              -2.3882721883981047E-03
               2.7463080449554548E-04
               7.5852381127838684E-03
               5.3889071269667271E-03
               1.1666693750893383E-02
              -1.4671049980566236E-02
              -1.0020650985949569E-02
               6.3625233472231089E-03
               5.3621529067546274E-03
               3.5316392308658265E-03
              -2.0185244158704051E-02
               3.5063883108746104E-03
               7.9183324070796635E-03
              -8.4069575084390804E-03
               8.2780229513150227E-03
               4.7914353744522133E-03
               6.1948998682319649E-04
               4.1241485578494795E-03
              -8.7666109435236457E-03
               4.4795467887990938E-03
              -1.1382214052100205E-03
               1.0267688658297369E-02
               1.0900091727451027E-02
              -8.6692783125069117E-03
              -1.4562735976637108E-02
              -4.1619036870306908E-03
               2.8268634835492930E-04
              -3.1492732668147397E-03
              -5.2911434084214346E-03
              -1.7035318446313365E-03
               1.3759229995103940E-02
               8.0489187011890430E-03
              -1.9070683769935662E-03
               9.7917143091464827E-03
               7.0674565827722018E-03
               4.3963446804117358E-04
              -3.7055207189663563E-04
              -2.6042465743927802E-04
              -5.9964653430774400E-03
               1.0118075796508369E-03
              -7.9854808915624906E-04
              -3.6122432036739698E-03
              -3.2302940861198542E-03
              -5.1737582248872066E-03
              -5.3524976702246365E-03
              -2.5910796221014832E-03
              -1.4094356012130282E-02
               5.4286889071999611E-03
               1.3289389719784748E-02
               1.2803003718922797E-02
              -1.4002714847190256E-03
              -6.8056353545671916E-03
         &END THERMOSTAT_ENERGY
         &RNG_INIT
Wiener process for Thermostat # 1        1 F T T   1.7017201368947403E+00         913774582.0        1324965285.0        1641866245.0        1769261176.0        2432355253.0        1361446764.0             12345.0             12345.0             12345.0             12345.0             12345.0             12345.0             12345.0             12345.0             12345.0             12345.0             12345.0             12345.0
Wiener process for Thermostat # 2        1 F T T  -2.4751592070412292E+00        1047012613.0        2462965090.0        2099435016.0         246300525.0         757191277.0         874918505.0        3692455944.0        1366884236.0        2968912127.0         335948734.0        4161675175.0         475798818.0        3692455944.0        1366884236.0        2968912127.0         335948734.0        4161675175.0         475798818.0
Wiener process for Thermostat # 3        1 F T T  -1.3616927374531100E+00        2992522521.0        2316692606.0         428595948.0          51968340.0        1028808238.0        2648889167.0        1015873554.0        1310354410.0        2249465273.0         994084013.0        2912484720.0        3876682925.0        1015873554.0        1310354410.0        2249465273.0         994084013.0        2912484720.0        3876682925.0
Wiener process for Thermostat # 4        1 F T T   1.7045360768081503E-03        1885157589.0        4187464854.0        1353658819.0        3485816479.0        2038697005.0        2307747358.0        2338701263.0        1119171942.0        2570676563.0         317077452.0        3194180850.0         618832124.0        2338701263.0        1119171942.0        2570676563.0         317077452.0        3194180850.0         618832124.0
Wiener process for Thermostat # 5        1 F T T  -7.7371463212783820E-01        1915528658.0        2924038244.0        2261774389.0        2608495822.0        2477620912.0        2293543555.0        1597262096.0        3906379055.0        3312112953.0        1016013135.0        4099474108.0         275305423.0        1597262096.0        3906379055.0        3312112953.0        1016013135.0        4099474108.0         275305423.0
Wiener process for Thermostat # 6        1 F T T  -3.0581110579050313E-01         247635729.0        1927152730.0        3052617697.0        2475450164.0        1152204142.0        1510351712.0          97147054.0        3131372450.0         829345164.0        3691032523.0        3006063034.0        4259826321.0          97147054.0        3131372450.0         829345164.0        3691032523.0        3006063034.0        4259826321.0
Wiener process for Thermostat # 7        1 F T T  -7.9750651699731656E-01        1261666690.0         175181546.0         710567080.0        3113891484.0        3277928559.0        3219649798.0         796079799.0        2105258207.0         955365076.0        2923159030.0        4116632677.0        3067683584.0         796079799.0        2105258207.0         955365076.0        2923159030.0        4116632677.0        3067683584.0
Wiener process for Thermostat # 8        1 F T T   7.4762934603722320E-01        1197880335.0        1473500441.0        2655593970.0         645293045.0        1816871444.0        3672894243.0        3281794178.0        2616230133.0        1457051261.0        2762791137.0        2480527362.0        2282316169.0        3281794178.0        2616230133.0        1457051261.0        2762791137.0        2480527362.0        2282316169.0
Wiener process for Thermostat # 9        1 F T T  -4.4275763556192732E-01        2340137531.0        3054444332.0        3033867130.0        4080152445.0        1440990785.0        3684025525.0        3777646647.0        1837464056.0        4204654757.0         664239048.0        4190510072.0        2959195122.0        3777646647.0        1837464056.0        4204654757.0         664239048.0        4190510072.0        2959195122.0
Wiener process for Thermostat # 10       1 F T T   2.9650110365051463E-01         833862934.0        3482636038.0        2196432743.0        3939946873.0         762676601.0        1871117344.0        4215590817.0        3862461878.0        1087200967.0        1544910132.0         936383720.0        1611370123.0        4215590817.0        3862461878.0        1087200967.0        1544910132.0         936383720.0        1611370123.0
Wiener process for Thermostat # 11       1 F T T   7.5448901699606163E-01        4144067122.0        1578612062.0         899375902.0        2227658366.0        2808299332.0        2524714748.0        1683636369.0         362165168.0         814316280.0         869382050.0         980203903.0        2062101717.0        1683636369.0         362165168.0         814316280.0         869382050.0         980203903.0        2062101717.0
Wiener process for Thermostat # 12       1 F T T  -1.5526722391876957E-01        1559964255.0        3497592935.0         891360707.0        1425760436.0        2090563477.0        4015978008.0         272317999.0         166758548.0         310112982.0         201045826.0        1680231254.0         118290799.0         272317999.0         166758548.0         310112982.0         201045826.0        1680231254.0         118290799.0
Wiener process for Thermostat # 13       1 F T T   7.1116432133977603E-01         105014853.0        1248642279.0         284459687.0        2637168838.0        2227680771.0        2159403251.0        2245755202.0        1652682525.0        2865544364.0         721509566.0         209733568.0         592362218.0        2245755202.0        1652682525.0        2865544364.0         721509566.0         209733568.0         592362218.0