 # Version information for this restart file 
 # current date 2022-11-29 17:56:20.723
 # current working dir /scratch/work/courses/CHEM-GA-2671-2022fa/fm1484/comp-lab-class/Week12/Runs/Proton
 # Program compiled at                              Sat Dec 12 18:27:15 EST 2020
 # Program compiled on                                         cs001.nyu.cluster
 # Program compiled for                                                nyu-intel
 # Source code revision number                                       git:8c64c6e
 &GLOBAL
   PRINT_LEVEL  LOW
   PROJECT_NAME PROTON
   RUN_TYPE  MD
   WALLTIME 21600
 &END GLOBAL
 &MOTION
   &GEO_OPT
     OPTIMIZER  BFGS
     MAX_ITER  100
     MAX_DR     3.0000000000000001E-03
     &BFGS
     &END BFGS
   &END GEO_OPT
   &MD
     ENSEMBLE  NVT
     STEPS  2000
     TIMESTEP     4.9999999999999994E-01
     STEP_START_VAL  500
     TIME_START_VAL     2.4999999999999795E+02
     ECONS_START_VAL    -1.1027452372049922E+03
     TEMPERATURE     3.0000000000000000E+02
     &THERMOSTAT
       TYPE  GLE
       REGION  MASSIVE
       &GLE
         NDIM  5
         A_SCALE     1.0000000000000000E+00
         A_LIST     1.8595758612559999E+02    2.7263853498399998E-01    1.1526100454610001E+01   -3.6414578262600003E+01 \
             2.3173375816020001E+02
         A_LIST    -2.7809524712060002E-01    8.5951591808710006E-05    7.2189048017650004E-01   -1.9844539343859999E-01 \
             4.2409257583420001E-01
         A_LIST    -1.4825808131210000E+01   -7.2189048017650004E-01    1.3590902121280000E+00    5.1498896280349999E+00 \
            -9.9949268450990001E+00
         A_LIST    -1.0372189126880000E+01    1.9844539343859999E-01   -5.1498896280349999E+00    2.6661910891169999E+01 \
             1.1507715495310000E+01
         A_LIST     2.1801346360420001E+02   -4.2409257583420001E-01    9.9949268450990001E+00   -1.1507715495310000E+01 \
             3.0958394565589998E+02
         &THERMOSTAT_ENERGY
              -2.9852589127976298E-03
              -8.3651102557657326E-04
              -2.1756893952584811E-03
              -5.0205273385396502E-04
              -5.8517978103649771E-03
               4.1851143048952924E-03
              -4.5708415397565528E-03
              -2.4554959111381292E-03
               4.8510324319574801E-03
               4.3191236336692640E-03
               7.3975399981535232E-03
              -2.4190364359393092E-03
               3.6300292765020213E-03
               6.6258773254605731E-04
              -3.6161972011442174E-04
              -4.1877441998362059E-03
               6.0344470343398487E-03
              -2.4451833533372107E-03
               3.8648172101119621E-03
              -2.3813755608560428E-03
               2.2542404116556887E-04
              -7.7413452027414635E-03
               2.3380378885647559E-03
               2.3803016411179543E-03
               6.5980390333225658E-04
              -3.8470056336226189E-03
              -1.6975142151444062E-03
               6.2949698332547405E-03
               1.4182134071657332E-03
               6.9291262397821020E-04
              -6.0736098660075363E-03
               2.9589998838567399E-03
               6.3412583291395990E-03
               1.0273203463022483E-03
              -4.4703625847053591E-03
               5.3985470084384609E-03
              -2.4413067531793998E-03
               1.2330866738674475E-03
               1.9416506258750912E-03
               1.6560273873102273E-03
               2.7712084008805820E-03
              -4.5500326317403214E-03
               5.6948019963713216E-04
               5.1212288251549949E-03
              -4.7116334781585742E-03
               1.6930742573727426E-03
               1.5864983200351049E-04
               5.3362873127918839E-03
              -3.9038941044482892E-03
               1.2481782876459283E-03
               2.2971629488641003E-06
              -7.1062242014865093E-03
               2.6565885899099167E-04
               5.8522606041881316E-03
              -5.2389720170788702E-03
               1.0545645204239102E-03
               1.5766144564510070E-04
              -2.3949250526606328E-03
               3.4091042790002474E-03
               3.9417835148813762E-03
              -2.7910614080312935E-04
               2.6957986316399852E-03
               3.8568645766229948E-03
               9.9156410999923813E-04
              -4.0498092551995626E-03
              -1.0787939470990027E-03
              -5.5220253606154323E-03
               5.4042712423158145E-03
               7.9550238232298995E-03
              -3.6784958845641593E-04
               3.1794979213296755E-04
              -2.1870333881965631E-03
              -5.5869433822584435E-04
               1.6711911759261099E-03
              -2.8165075117147212E-03
              -2.3453939119882083E-03
               2.3323338726890389E-03
              -6.3269307423232226E-04
               5.1052304387937050E-03
              -1.3917146713930491E-03
              -4.1087863087217779E-03
               1.3322559627584306E-03
               1.1092498984006660E-03
              -1.1240082519353924E-03
               6.5189117208070890E-03
              -4.5210047050256094E-03
              -4.1366315110683456E-03
               4.4954423504212871E-03
               3.8789189410474764E-03
               1.2278917112419421E-03
               2.6005435826105825E-03
              -2.6466413951670414E-03
              -1.7952742874090687E-03
              -2.1468902518287621E-03
              -3.8383769733538993E-03
               7.3334395665900409E-04
              -8.3253429569854162E-04
               3.0520341983537131E-03
               1.3844637344216969E-03
               8.5234121060469281E-04
               4.3100573383248375E-04
              -2.4868248626804261E-03
              -9.0142980075155559E-04
              -4.7380711923160988E-03
               2.0859851293419007E-03
               3.7900262826829709E-03
               2.2680350458335868E-03
              -4.1079795995052383E-03
               3.6206416360757203E-03
              -8.0316716383130999E-04
               2.5658957008080972E-03
              -2.1535603873478230E-04
               2.5885483237171542E-03
               9.6915031934733222E-04
               1.3870155401408230E-03
               2.2680753929844822E-03
              -6.9316015023796343E-03
               2.1136159596507036E-03
              -3.7823883009555073E-03
              -8.1850463831654487E-04
              -2.2094089837856978E-03
               5.0783995813325619E-03
               3.2012890700042367E-03
               4.1081038455614404E-03
              -4.7276514285368113E-03
              -3.4050263043686928E-03
              -1.5669187391419089E-04
               1.1465834905214634E-03
               1.8866681061208812E-03
               2.7302353291525031E-03
              -3.0884119773732371E-03
               2.9139877741857730E-03
              -2.7152135782575180E-03
               3.3091322761502348E-03
              -3.7617539198682480E-03
               1.5381711197793480E-03
              -5.5080814106617804E-03
               1.5413544828280317E-03
               6.3996185490567915E-03
              -4.1658672570507732E-03
               9.0333969240425360E-03
               4.4768322300589320E-03
               3.1937484612201208E-03
               1.0010829047881484E-02
              -2.3673061329463644E-03
              -2.1116635871650967E-03
               6.8088005474126070E-04
              -1.7102338655005291E-03
              -1.4708123117781646E-03
               8.0553910053791020E-03
              -2.2042692123942337E-03
               1.2285410079265638E-04
              -3.5978026170078797E-04
               7.7363067037687140E-04
               3.2894557486786435E-03
              -2.2558930365158560E-03
              -2.3421968503275171E-03
              -2.0114165074785069E-03
               3.0063742669030908E-03
               2.4905294638395570E-03
              -4.0239000314745248E-03
              -1.3441375225298952E-03
              -1.2967207087950842E-03
              -3.2371385152153980E-04
               3.9347869098249125E-03
               7.9978064332972675E-03
               1.1646455071995666E-04
              -5.1685055927430581E-03
              -3.3844857581565896E-03
               3.9140457103530460E-03
              -9.7769248762879634E-04
              -7.4952655342677710E-04
              -6.3644778130811835E-05
               3.1605736382789127E-03
              -1.0739025483238115E-03
               3.0120722094880469E-03
               9.0587793581900391E-04
               1.8166526008367629E-03
              -2.1700078055335509E-04
               2.0817921638989603E-04
              -8.7228847905274163E-04
               1.1283259685258183E-03
               2.0994797837099780E-03
              -8.7399654177106496E-03
               2.7787582034184046E-03
               6.2105154620362526E-04
              -1.9770369404392110E-03
               7.2150541691428077E-03
              -2.4043270365734009E-03
              -4.6852354415766900E-04
               1.9810512435642939E-03
              -3.3556406667231199E-03
               4.9307544049031603E-03
              -1.9155868334862520E-03
               3.1073231586638500E-04
              -4.7015900537839238E-03
               2.6030081200182830E-03
              -1.2486432960063833E-03
              -9.0164363833223889E-04
               4.7285840828376036E-04
              -9.8088845209861122E-04
              -7.2197038438433290E-04
               7.0817808664322629E-03
              -9.0508124307282680E-04
              -5.6307626190036167E-03
               2.0015694005299702E-03
              -4.9403416727119686E-03
               5.9971141073888600E-04
              -9.3315203841373609E-04
               4.2630863504072684E-03
              -2.5736080357699693E-04
               8.2781521164760371E-04
               4.4972727220039801E-03
               6.5271955472474038E-04
               4.8663157318593539E-03
              -2.4553129031019893E-03
              -3.7110294478981888E-03
               3.5947820515287734E-03
               2.0313262963085228E-04
              -4.4462331351080124E-03
               8.5260619628670195E-04
              -3.5781202359439386E-03
              -1.1660214492053445E-03
              -5.0017029136304131E-04
              -8.2109259198398813E-04
               3.9793564603974050E-03
               2.8077024608380227E-03
               4.9957234780172834E-03
              -6.3682698669697627E-03
               4.6375560665498968E-03
              -6.7683873316876910E-03
               3.4051582987027380E-03
               6.2839855388186396E-03
              -5.6529716447741409E-03
              -1.3987214645887079E-03
              -1.8978364348005818E-03
              -1.9420318270832095E-03
               4.1457958316595397E-03
              -9.7237411707691286E-05
               3.7395306615339646E-04
               4.3509207239752941E-03
              -1.8507743099941325E-03
               2.7484463307291245E-03
               4.2348178585635693E-03
              -3.7416902230200414E-03
               9.9637474309369634E-04
              -3.1407082723248258E-03
              -9.8756501911954181E-04
               1.0839054547820515E-03
              -5.7866455763651726E-03
               2.0113035867532379E-03
               1.9671612994999366E-04
              -2.8514032403009638E-03
              -1.1781461795713641E-04
              -7.7185866451101853E-05
              -5.8437929689451121E-03
               6.0195129894648142E-03
              -1.2868342955811771E-03
               2.3797286781359981E-03
              -6.4963884990481028E-03
               5.6960766841330276E-03
               1.6511707338489358E-03
               1.6958763060706591E-03
               1.7372591113425063E-05
              -1.0333805085788236E-03
              -4.2679550035422658E-03
              -3.7509225105931427E-03
              -1.2703344482263264E-03
              -1.1704303006581738E-03
               3.7482665379528774E-04
              -7.5856440853401151E-04
              -1.8726176242650377E-03
               4.3386294435022090E-03
               3.2644570805472821E-03
               4.2120275898109589E-03
               4.3967569335376215E-06
              -5.7939777784144168E-03
               1.7926496156298543E-03
              -5.6672924397382710E-03
               1.9465228329784219E-03
               7.3888122803176289E-04
               6.9489827309562120E-04
              -5.1404330780637107E-03
              -3.0002532870489788E-03
              -2.2906788192035084E-03
               8.6847921672803896E-04
               2.4032940074303366E-03
              -4.4761751711669502E-03
              -7.0775510211974182E-04
               2.8929008330831098E-03
              -4.4330510994908164E-04
               7.1823945421264834E-03
              -2.1095426447383854E-03
               3.2892309792871078E-04
               9.4519627342129682E-05
               1.5974700985286411E-03
              -7.4765859585541094E-03
              -7.5906391608786131E-04
               1.8037969179330749E-03
              -1.1950094043669179E-03
              -3.4326505437337279E-03
               3.5028725872793009E-03
               2.7360841182387423E-03
               3.7050089757635703E-03
               2.5568043821967675E-03
              -3.9529022351957451E-03
              -3.6175234722770262E-03
               1.4171103699228836E-03
               2.2286408618660768E-03
               6.2815140403302298E-03
              -1.4669359446345212E-03
              -9.3711252628407571E-03
               5.5844124523346892E-03
               1.2088225043496625E-03
               1.6750244190543839E-03
              -1.4357434746903032E-04
               1.2323099490585247E-03
               3.8743114883671151E-03
              -7.3495342667443070E-04
              -1.8265982601517246E-03
               6.4859918022542682E-03
              -2.3368648226036615E-03
              -3.4040749115951032E-03
               7.2110238007091244E-03
               3.5138289851179808E-04
               2.6984651339056667E-03
               2.9687971399865447E-04
               6.1556688217771615E-03
              -2.9011067835311988E-03
              -5.3171375170537336E-03
              -2.2520384600426893E-03
              -8.0969031657945820E-03
               6.3147172846607976E-03
               9.9101502604901064E-04
               4.0289446710398884E-04
              -7.9146771918207600E-04
               7.0761452124520055E-03
              -1.0048071408203028E-04
              -1.8186845926617193E-03
              -1.7822425430657450E-03
              -1.6833156570564738E-03
               2.0706104315043900E-03
               2.7317769487883838E-03
               6.3157288439609895E-04
              -1.7829703942797784E-03
              -2.5425760050502618E-03
               3.4620872418541526E-03
              -2.9161791750092201E-04
              -3.2662624963665618E-03
              -1.6072693724774898E-03
               3.4783492610060652E-03
               3.9357624341253760E-03
              -7.1300397636626881E-03
               2.5334492191771518E-03
              -9.4667711115910453E-04
               7.3088833880487446E-03
              -5.0424114502974913E-03
              -5.5077474307205665E-04
              -3.8613853601264427E-03
               1.1169386860139952E-02
              -1.3774527285515157E-03
               4.7287043237379813E-04
              -5.1060424202057017E-03
              -8.0056149873488913E-03
               1.6100568094116422E-03
               1.5066870694843441E-02
               2.6514057184852786E-03
              -5.5472292259614955E-04
              -3.1108130835098913E-03
              -2.7273129082415785E-05
               2.6446428849286720E-03
              -1.2608906818101116E-03
              -1.0246877852896592E-02
              -1.0772800752301874E-03
               5.2295001376331442E-03
              -1.1587898544342320E-03
               9.8114918122322019E-04
               3.9084054162401129E-03
               2.1343892703284891E-04
               5.6074106594207265E-03
               2.6310046182274091E-03
               1.1436960506922144E-02
               2.3847534384345146E-02
               3.2719858144425212E-02
               4.0364587687664556E-03
               6.5765618041754171E-03
              -2.2060814752798297E-03
               5.2602931972634886E-03
               1.1522788297601382E-02
               6.3644475948381792E-03
              -1.7386645389726122E-03
               3.2520518670986053E-03
              -2.3098222210628091E-03
              -6.9826432018974633E-03
               4.2687062446204521E-03
               1.3107696215369086E-03
              -1.2042969313369530E-03
               5.8049906775382951E-04
               2.3022907543416046E-03
              -3.8175954127478312E-03
              -3.6993678505658242E-03
               2.3535368914271528E-03
               8.9227769821719292E-03
               1.6830589178296125E-03
              -4.9718591962939623E-03
              -9.5227323126186145E-04
              -2.0718787763125673E-03
              -7.9401838390838093E-03
              -4.5902063583272911E-04
               6.5133257788543917E-04
              -2.8450763837860359E-04
              -4.2234690455936145E-03
               3.8407754465574376E-03
              -4.5845115159107710E-03
              -2.4071933880440645E-03
               3.4775126794799288E-03
              -3.8223916657214039E-03
              -1.4585956038097782E-03
              -1.1523343711914622E-03
               1.5992622946310814E-03
               2.4924105296201516E-03
              -5.9563310796289528E-04
              -2.8498666387282560E-03
              -1.9733220753642340E-03
              -1.0820430123974587E-03
              -1.3103532239264816E-04
               3.2612779060553192E-03
              -3.8151360138865107E-03
              -6.5757589549988939E-04
               6.6472057186431439E-03
              -2.4346708346935165E-03
              -1.3019307316410006E-03
              -3.9258971070571507E-03
              -3.1729213077373000E-03
               9.0118643577357890E-04
              -1.8652747757563206E-04
               2.5540236889307691E-03
              -1.3477447291399298E-03
               5.0912367183324108E-03
              -2.0333411027045538E-03
               3.6328978502451299E-03
              -2.0545496659427415E-04
              -3.1102138162080730E-03
               3.1846801375612853E-03
               7.0601690888993365E-04
               6.4871459826957153E-03
               4.5144242365567598E-03
              -1.1428803519696394E-03
              -2.9428536899391271E-03
              -4.3649525867134773E-03
               4.5146519975500189E-05
              -6.4745889770146592E-03
               6.6130586542166693E-03
              -1.9882985330033614E-03
              -5.8859938826758787E-04
              -1.2334454712756167E-03
               2.6257279322868983E-03
              -9.9903469516086571E-04
              -2.0728519025187547E-03
               4.4493173864918936E-03
              -2.1430331015933183E-03
              -5.8817865240016077E-04
              -2.4991529200354850E-03
              -3.8114675487320817E-04
               3.8074256604105094E-03
               2.6979307172711425E-03
              -1.7294611016350923E-03
              -3.6123290597533005E-03
              -1.2243183382397325E-03
               2.3638406363808056E-03
              -3.0895830450886081E-03
              -1.3405181876800446E-03
               2.4675307615566328E-03
              -1.2129755480394849E-03
              -1.8579300588674155E-03
               4.5131916398327143E-03
               4.1146177501344824E-03
               2.0071882446282786E-03
              -2.7762999455055843E-03
               1.4662253189953343E-03
              -3.0965974109669773E-04
               1.0981528620846394E-03
               3.6196428011798397E-03
               3.9757437105900706E-03
               8.8679247588550273E-04
              -3.1766395474889090E-03
               1.1691856229564515E-03
              -4.2192905951533143E-03
              -2.5134635733338841E-04
              -5.2472267834522616E-04
               2.1707406467843355E-04
              -2.4980852702126161E-05
              -1.2563462905100784E-03
              -6.5296453612734078E-04
               4.4067997467445706E-04
              -5.1244516369631900E-03
               6.7032485865773928E-03
               4.0866596233715821E-03
               4.6222867105241011E-03
               3.8517937442317032E-03
              -1.4594271043061157E-03
              -2.0931730789697754E-03
              -7.7613548008083648E-03
               5.3910776470962388E-03
              -5.9372927439227518E-03
              -5.6349536927467391E-03
               3.4584723461468709E-03
              -1.2855576116807903E-03
               1.7867758737957684E-03
               7.9907156828919808E-04
               5.2249243342107135E-03
               3.3597325472837402E-04
              -4.9155229389004030E-03
              -2.6906809241194567E-03
               1.1484176494042065E-04
               1.6815594820939837E-03
              -2.8471264074426514E-03
               2.6658633424909072E-03
               5.3677707934931644E-03
              -3.4700309459511128E-03
              -1.8885621928203928E-03
              -1.5287338397430373E-03
               7.6418311852730937E-04
              -3.8950032784353028E-03
              -6.8097026937594834E-04
               1.7315995695270430E-03
              -2.3403795080215208E-03
               7.8496423581963376E-04
               6.3841074607394023E-03
               6.5313948134337113E-03
              -3.9339406930482554E-03
              -4.7305755022031704E-03
               8.6286000771775570E-04
              -4.9893703816698146E-03
               2.9027564431977119E-03
               3.2278993383926969E-03
              -1.4020946265901291E-04
              -3.1192163614655126E-03
               8.3559119179849452E-04
               2.5025976357893145E-03
              -8.0040810196675802E-04
               3.3632965192643203E-03
              -7.6523731986523900E-04
               4.3259651254842239E-03
               3.9309394025360475E-03
               1.0070372029921326E-03
              -2.5703140415593586E-03
               8.0177285624803392E-04
               4.0558436027167627E-03
               4.6912171034423026E-03
              -7.3904000705622601E-03
              -2.7103603509013004E-03
              -3.0004969210449027E-03
              -2.1686820355274221E-04
               3.7372022871469217E-04
              -7.6294606040423476E-03
               2.6925051758324781E-04
              -4.6662548675487070E-04
               6.1424220546625503E-03
               3.1075837013938888E-03
               7.1275129361450537E-03
               3.0600378476568712E-03
               3.4039788724164340E-03
               7.7983576100233492E-04
               6.8964603699557894E-04
               4.7062530992525624E-03
              -8.3913508980709532E-03
              -4.0954555090885469E-03
               9.5685354141430493E-03
              -5.2204892898978011E-03
               3.0261955929796105E-03
              -5.6714819050335454E-03
              -3.1902748137673485E-03
              -4.9455296679180669E-03
               3.0410198634700752E-04
              -1.8225894150093876E-03
               2.7745206219174697E-03
               6.6791084523100744E-03
              -3.6439183616437240E-03
         &END THERMOSTAT_ENERGY
         &RNG_INIT
Wiener process for Thermostat # 1        1 F T T  -1.5505429657892764E+00         661802595.0        2026459976.0        3136775027.0        3268219721.0        1056216878.0        3744216088.0             12345.0             12345.0             12345.0             12345.0             12345.0             12345.0             12345.0             12345.0             12345.0             12345.0             12345.0             12345.0
Wiener process for Thermostat # 2        1 F T T   1.5766939834860993E-01        2521559082.0        1979391111.0        3972826820.0        2839528192.0        3960449033.0        3051881342.0        3692455944.0        1366884236.0        2968912127.0         335948734.0        4161675175.0         475798818.0        3692455944.0        1366884236.0        2968912127.0         335948734.0        4161675175.0         475798818.0
Wiener process for Thermostat # 3        1 F T T  -1.6802103653762466E+00        2464096834.0        3454226368.0         668358963.0        3607867155.0        2139338144.0        1695442074.0        1015873554.0        1310354410.0        2249465273.0         994084013.0        2912484720.0        3876682925.0        1015873554.0        1310354410.0        2249465273.0         994084013.0        2912484720.0        3876682925.0
Wiener process for Thermostat # 4        1 F T T  -9.2120442907176847E-01        3007810664.0         626544053.0           5688727.0        2019501767.0        4050809287.0        2188826537.0        2338701263.0        1119171942.0        2570676563.0         317077452.0        3194180850.0         618832124.0        2338701263.0        1119171942.0        2570676563.0         317077452.0        3194180850.0         618832124.0
Wiener process for Thermostat # 5        1 F T T   1.9586792436148486E+00        3119398129.0        2238966874.0        1731687009.0        1729823850.0        3912388439.0         182524877.0        1597262096.0        3906379055.0        3312112953.0        1016013135.0        4099474108.0         275305423.0        1597262096.0        3906379055.0        3312112953.0        1016013135.0        4099474108.0         275305423.0
Wiener process for Thermostat # 6        1 F T T  -2.2012851380256623E-01         527820745.0        2447393615.0         338698828.0         653439858.0         976211817.0        3944196308.0          97147054.0        3131372450.0         829345164.0        3691032523.0        3006063034.0        4259826321.0          97147054.0        3131372450.0         829345164.0        3691032523.0        3006063034.0        4259826321.0
Wiener process for Thermostat # 7        1 F T T  -1.2191095662093037E-02         167278661.0        2992638024.0        1197931920.0         124710794.0         889033703.0        2194094787.0         796079799.0        2105258207.0         955365076.0        2923159030.0        4116632677.0        3067683584.0         796079799.0        2105258207.0         955365076.0        2923159030.0        4116632677.0        3067683584.0
Wiener process for Thermostat # 8        1 F T T  -2.6373530393371375E-01        2923147749.0        3809475671.0         892364519.0        3114385888.0        3523415917.0        3402922821.0        3281794178.0        2616230133.0        1457051261.0        2762791137.0        2480527362.0        2282316169.0        3281794178.0        2616230133.0        1457051261.0        2762791137.0        2480527362.0        2282316169.0
Wiener process for Thermostat # 9        1 F T T  -1.2388913960989989E+00         276694386.0        3384434371.0        2194062143.0        3864498526.0        2498625561.0        4174179731.0        3777646647.0        1837464056.0        4204654757.0         664239048.0        4190510072.0        2959195122.0        3777646647.0        1837464056.0        4204654757.0         664239048.0        4190510072.0        2959195122.0
Wiener process for Thermostat # 10       1 F T T  -6.9271884074884071E-01         298842605.0        4183294382.0        3769908432.0        1623977651.0        3452521187.0         349927101.0        4215590817.0        3862461878.0        1087200967.0        1544910132.0         936383720.0        1611370123.0        4215590817.0        3862461878.0        1087200967.0        1544910132.0         936383720.0        1611370123.0
Wiener process for Thermostat # 11       1 F T T  -3.9199517781213300E-01        1183014876.0        2469777470.0        2706060047.0        1374668043.0         490283634.0         131761905.0        1683636369.0         362165168.0         814316280.0         869382050.0         980203903.0        2062101717.0        1683636369.0         362165168.0         814316280.0         869382050.0         980203903.0        2062101717.0
Wiener process for Thermostat # 12       1 F T T   1.2248374085476998E+00         744312290.0        1838623065.0        1895433531.0        2930723882.0        3034111406.0        1223209339.0         272317999.0         166758548.0         310112982.0         201045826.0        1680231254.0         118290799.0         272317999.0         166758548.0         310112982.0         201045826.0        1680231254.0         118290799.0
Wiener process for Thermostat # 13       1 F T T   1.6053528300026945E-02         341235087.0         365462780.0         607175623.0        3292057964.0        1611524565.0         256574977.0        2245755202.0        1652682525.0        2865544364.0         721509566.0         209733568.0         592362218.0        2245755202.0        1652682525.0        2865544364.0         721509566.0         209733568.0         592362218.0